"Site","age","sex","monogamous","romantic","health","exercise","eatdrink","gluctot","artgluctot","smoke","cigs","avgtemp","Temperature_t1","Temperature_t2","DEQ","AvgHumidity","mintemp","language","langfamily","SNI1","SNI2","SNI3","SNI4","SNI5","SNI6","SNI7","SNI8","SNI9","SNI10","SNI11","SNI12","SNI13","SNI14","SNI15","SNI16","SNI17","SNI18","SNI19","SNI20","SNI21","SNI22","SNI23","SNI24","SNI25","SNI26","SNI27","SNI28","SNI29","SNI30","SNI31","SNI32","scontrol1","scontrol2","scontrol3","scontrol4","scontrol5","scontrol6","scontrol7","scontrol8","scontrol9","scontrol10","scontrol11","scontrol12","scontrol13","stress1","stress2","stress3","stress4","stress5","stress6","stress7","stress8","stress9","stress10","stress11","stress12","stress13","stress14","phone1","phone2","phone3","phone4","phone5","phone6","phone7","phone8","phone9","onlineid1","onlineid2","onlineid3","onlineid4","onlineid5","onlineid6","onlineid7","onlineid8","onlineid9","onlineid10","onlineide11","ECR1","ECR2","ECR3","ECR4","ECR5","ECR6","ECR7","ECR8","ECR9","ECR10","ECR11","ECR12","ECR13","ECR14","ECR15","ECR16","ECR17","ECR18","ECR19","ECR20","ECR21","ECR22","ECR23","ECR24","ECR25","ECR26","ECR27","ECR28","ECR29","ECR30","ECR31","ECR32","ECR33","ECR34","ECR35","ECR36","HOME1","HOME2","HOME3","HOME4","HOME5","HOME6","HOME7","HOME8","HOME9","SNS1","SNS2","SNS3","SNS4","SNS5","SNS6","SNS7","ALEX1","ALEX2","ALEX3","ALEX4","ALEX5","ALEX6","ALEX7","ALEX8","ALEX9","ALEX10","ALEX11","ALEX12","ALEX13","ALEX14","ALEX15","ALEX16","KAMF1","KAMF2","KAMF3","KAMF4","KAMF5","KAMF6","KAMF7","STRAQ_1","STRAQ_2","STRAQ_3","STRAQ_4","STRAQ_5","STRAQ_6","STRAQ_7","STRAQ_8","STRAQ_9","STRAQ_10","STRAQ_11","STRAQ_12","STRAQ_13","STRAQ_14","STRAQ_15","STRAQ_16","STRAQ_17","STRAQ_18","STRAQ_19","STRAQ_20","STRAQ_21","STRAQ_22","STRAQ_23","STRAQ_24","STRAQ_25","STRAQ_26","STRAQ_27","STRAQ_28","STRAQ_29","STRAQ_30","STRAQ_31","STRAQ_32","STRAQ_33","STRAQ_34","STRAQ_35","STRAQ_36","STRAQ_37","STRAQ_38","STRAQ_39","STRAQ_40","STRAQ_41","STRAQ_42","STRAQ_43","STRAQ_44","STRAQ_45","STRAQ_46","STRAQ_47","STRAQ_48","STRAQ_49","STRAQ_50","STRAQ_51","STRAQ_52","STRAQ_53","STRAQ_54","STRAQ_55","STRAQ_56","STRAQ_57"
"Tsinghua",1922,2,6,2,3,2,1,0,0,2,0,36.75,36.8,36.7,26.887802124023,64,12,7,3,2,1,0,1,1,5,0,6,2,7,3,1,1,2,5,3,1,2,3,2,1,1,"Ê®ÁùµãæäÕ¾",NA,NA,NA,NA,3,NA,NA,NA,NA,3,4,4,4,4,4,2,2,4,4,4,4,4,2,4,5,3,3,1,4,2,2,3,1,5,2,1,2,3,2,3,3,2,4,4,4,4,4,2,4,2,2,2,2,5,1,2,4,2,2,2,5,2,2,2,5,2,2,2,4,2,2,5,5,2,5,2,6,5,4,5,5,2,5,2,3,5,2,5,4,6,6,2,4,4,4,4,3,3,2,2,3,3,2,4,6,7,6,6,2,2,2,2,2,2,2,2,2,1,2,2,2,2,2,2,2,2,4,2,2,2,2,2,4,5,3,1,2,2,4,3,4,2,1,4,2,3,2,2,4,3,2,4,4,4,2,3,4,4,3,4,4,3,2,4,1,2,4,2,2,1,5,3,4,3,2,2,4,2,3,2,4,2,2,3,2,2,4,2
"Oxford",1940,1,7,1,4,2,1,0,0,2,NA,35.4,34.2,36.6,51.75,74,2.777777778,5,1,3,8,4,1,NA,2,2,1,NA,8,5,2,1,1,NA,2,1,8,1,1,NA,2,"Pensioners","Men/women with foreign spouses not in UK",NA,NA,NA,25,30,NA,NA,NA,3,5,2,3,2,2,5,3,4,5,5,3,4,1,1,1,1,1,1,1,1,1,1,1,5,2,1,1,1,1,1,1,1,1,1,1,3,1,1,1,1,1,1,1,1,1,1,1,1,1,1,1,1,1,1,1,1,1,1,1,4,1,1,1,1,7,1,3,1,1,1,1,1,1,4,4,4,2,1,4,4,1,1,5,3,3,3,3,1,1,1,1,6,5,5,2,2,5,5,1,1,1,1,1,1,1,1,1,1,1,2,3,2,3,2,1,1,1,1,1,1,1,5,1,3,4,5,2,3,2,4,1,1,5,5,1,1,2,3,1,3,3,4,4,4,3,1,5,1,3,3,1,1,1,1,2,1,5,3,5,1,3,1,5,1,1,5,3,3,1,1,1,1,3,1,1,1,5,1
"Oxford",1945,1,6,1,3,2,1,0,8,2,NA,35.1,35,35.2,51.75,89,-1.666666667,5,1,1,6,4,2,2,1,NA,1,NA,3,2,1,NA,1,NA,1,NA,NA,4,1,NA,1,NA,NA,NA,NA,NA,NA,NA,NA,NA,NA,4,3,4,2,2,2,3,2,3,5,3,3,4,3,3,3,2,2,2,2,2,1,2,3,3,1,2,2,2,2,1,2,1,2,2,2,1,2,1,1,1,1,1,2,2,1,1,5,3,3,2,4,3,2,2,3,4,5,4,2,2,2,5,3,2,2,2,2,2,2,1,1,2,3,2,5,2,3,2,4,4,3,6,5,3,4,4,3,4,4,5,4,6,5,5,5,5,5,5,2,2,4,2,2,2,2,2,2,1,2,3,2,2,2,2,5,5,5,2,3,2,1,1,3,2,5,4,3,3,5,5,3,3,1,3,2,4,1,4,3,4,4,4,5,3,5,4,4,1,4,4,1,1,5,2,3,4,5,4,5,3,2,3,4,1,2,2,3,2,2,3,2,4,1,1,1,2,4,1
"Oxford",1948,2,7,1,2,2,1,3,0,2,NA,35.95,36.1,35.8,51.75,88,-2.222222222,5,1,1,3,3,1,NA,1,NA,4,3,1,1,2,8,1,NA,1,NA,NA,3,2,8,1,NA,NA,NA,NA,NA,NA,NA,NA,NA,NA,3,2,4,4,2,3,4,2,2,4,4,4,2,2,2,3,2,2,1,3,2,2,2,3,3,3,3,1,3,2,4,1,2,2,4,4,4,1,1,2,1,1,1,1,1,1,1,1,1,1,1,2,2,2,1,7,1,1,2,1,1,1,2,4,7,1,1,1,7,7,3,2,2,6,1,1,1,1,1,1,2,1,2,5,5,5,5,5,4,3,4,4,3,6,6,5,4,3,2,3,4,1,2,4,2,3,4,2,1,2,2,2,2,4,2,4,4,4,4,5,1,2,1,4,4,5,1,2,2,2,4,5,2,2,4,5,2,1,2,5,2,4,5,5,2,4,4,5,2,4,5,4,1,4,2,3,5,3,4,1,2,4,2,4,2,2,2,4,2,1,3,4,4,1,4,5,4,5,1
"Chile",1948,2,6,1,4,2,1,0,0,2,1,36.08333333,35.72222222,36.44444444,42.077194213867,79,1,2,1,5,4,4,1,1,1,NA,6,4,7,5,1,NA,1,NA,1,NA,NA,4,1,NA,1,NA,NA,NA,NA,NA,NA,NA,NA,NA,NA,2,2,3,4,4,4,3,1,5,4,4,4,4,2,2,2,3,2,1,2,2,2,3,3,3,2,2,2,2,2,2,2,1,2,4,2,3,3,3,3,3,1,3,3,3,1,1,2,2,4,2,5,6,1,1,4,2,2,5,4,1,1,2,2,5,2,2,2,2,2,1,2,2,4,1,2,2,2,1,6,5,1,5,5,5,5,5,5,3,2,4,3,3,4,5,4,3,3,3,1,1,1,1,1,1,2,1,2,1,1,2,2,2,1,4,4,5,5,3,3,2,1,2,4,4,3,3,4,1,3,3,4,2,2,4,3,4,3,5,1,4,3,4,2,4,4,4,4,1,3,4,1,1,1,1,3,3,2,2,3,2,3,3,4,2,3,2,3,4,4,3,4,3,2,4,3,3,3,1
"Bamberg",1951,1,7,1,4,2,1,0,0,2,NA,35.6,35.3,35.9,51.656600952148,59,2,1,1,1,3,3,1,NA,1,NA,7,2,7,2,2,1,1,NA,1,NA,NA,2,2,8,2,"Telefonseelsorge","Seniorenheim",NA,NA,NA,7,2,NA,NA,NA,4,4,3,2,2,2,2,4,3,4,4,5,2,2,3,3,3,1,2,2,3,3,2,3,2,1,2,2,4,3,4,2,1,2,3,3,1,2,1,1,1,1,1,1,1,1,1,1,2,1,1,1,3,1,1,1,2,1,6,5,1,1,1,2,1,1,2,7,2,1,1,1,2,2,2,6,2,2,1,7,6,3,5,5,5,5,4,2,5,4,5,4,7,3,5,4,2,3,3,1,2,1,2,1,3,4,2,4,2,2,4,4,1,1,1,4,7,6,1,6,3,7,5,4,5,3,1,2,1,5,2,5,4,1,5,5,1,1,1,4,5,4,4,5,4,4,4,2,1,3,4,1,1,5,4,1,4,4,2,4,4,1,1,3,1,1,1,3,4,2,1,1,1,1,1,1,1,3,1
"Oxford",1952,1,4,1,3,2,1,1,3,2,NA,35.4,34.8,36,51.75,74,2.777777778,5,1,5,2,2,1,NA,1,NA,1,NA,3,1,1,NA,1,NA,1,NA,NA,2,1,NA,2,"badminton","bridge 1","bridge 2","bridge 3","badminton 2",12,5,6,1,4,2,2,4,1,2,2,2,2,3,4,4,2,3,3,4,3,3,4,3,3,3,3,3,3,2,2,2,3,4,1,4,2,2,2,3,2,4,4,4,3,4,2,2,2,4,2,3,3,5,4,5,6,5,5,2,5,4,5,3,3,3,4,4,3,2,3,2,4,2,3,2,2,3,2,2,3,3,2,2,3,3,3,5,4,3,4,4,3,4,5,4,4,5,4,5,5,5,5,5,2,2,2,4,2,2,2,3,2,2,2,2,2,3,3,2,4,4,2,3,2,2,2,2,4,3,4,3,3,2,2,3,2,2,3,2,2,2,2,2,3,4,4,4,3,4,4,3,4,3,3,4,3,2,3,2,2,3,2,3,2,2,4,2,4,2,2,2,2,2,3,4,3,2,4,3,2,2,3,2
"Oxford",1952,2,6,2,2,2,1,0.2,0,2,NA,35.8,35.1,36.5,51.75,74,2.777777778,5,1,4,3,3,2,2,1,NA,2,2,5,3,1,NA,1,NA,1,NA,NA,3,1,NA,2,"street band","samba band",NA,NA,NA,10,10,NA,NA,NA,2,2,2,4,2,2,3,2,3,4,3,2,2,2,3,3,2,3,3,3,3,2,3,3,4,2,3,3,3,3,3,3,3,3,3,3,3,3,3,3,3,3,3,3,3,3,3,5,5,5,2,4,2,3,5,5,2,6,3,4,2,3,4,4,2,2,3,5,2,4,3,3,2,5,2,2,3,2,2,5,6,2,4,5,5,5,5,5,5,3,5,5,4,2,2,2,2,2,2,1,2,1,2,2,1,1,1,2,2,1,2,1,1,2,1,4,6,4,4,4,3,3,2,4,4,5,2,2,3,2,2,4,1,3,4,4,4,2,2,3,2,3,5,4,4,4,3,3,3,4,3,3,3,2,3,2,4,4,2,4,2,2,3,3,1,3,2,4,2,3,2,4,2,2,3,3,4,1,2
"Oxford",1952,2,7,2,3,2,1,0,0,2,NA,35.85,35.3,36.4,51.75,71,1.666666667,5,1,4,2,2,1,NA,1,NA,1,NA,7,3,1,NA,2,4,2,1,7,4,1,NA,1,NA,NA,NA,NA,NA,NA,NA,NA,NA,NA,4,4,4,2,3,4,2,4,4,2,5,3,4,5,3,4,3,3,3,3,5,3,3,4,5,2,5,1,1,1,1,1,1,1,1,1,1,1,1,1,1,1,1,1,2,1,1,5,5,5,5,4,5,5,5,3,4,3,4,4,5,5,4,6,5,3,3,6,5,5,3,5,4,5,4,3,3,4,3,5,5,3,4,5,3,4,5,3,5,5,5,5,7,5,5,5,7,7,7,3,3,4,3,4,4,3,3,2,3,4,2,2,2,2,2,5,6,4,6,3,2,1,3,3,3,5,4,2,2,2,5,2,1,3,1,2,2,1,4,2,3,3,5,4,3,3,4,3,3,4,3,3,3,3,4,4,4,4,3,4,2,3,3,4,2,3,4,1,4,3,3,3,3,3,3,3,3,1,3
"Oslo",1953,2,7,2,5,2,1,0,0,2,NA,35.6,35.1,36.1,59.912704467773,76,1,4,1,4,2,2,2,2,5,NA,3,1,2,2,1,NA,1,NA,2,1,1,1,2,1,1,NA,NA,NA,NA,NA,NA,NA,NA,NA,NA,3,3,3,2,3,2,5,1,4,4,2,3,4,2,3,3,1,1,1,1,2,1,2,3,3,2,1,2,2,1,1,4,2,2,3,4,4,4,4,4,4,1,1,1,2,1,4,5,2,3,2,3,5,1,1,2,2,2,5,2,5,1,5,1,2,7,2,5,2,2,2,2,2,3,2,2,3,2,2,4,4,2,5,5,5,5,5,2,5,5,5,5,5,4,2,5,3,3,2,1,1,1,2,2,1,1,2,1,3,1,1,1,1,2,1,5,8,7,1,3,2,5,2,2,4,4,4,3,1,3,4,2,2,2,2,2,4,2,2,2,3,2,4,3,4,3,4,4,2,4,3,2,3,2,3,2,1,4,1,2,2,1,3,5,1,1,1,2,5,3,3,4,2,5,1,1,1,5,1
"Chile",1953,2,7,1,2,2,1,1,0,1,NA,35.85,36.2,35.5,33.449996948242,73,11,2,1,1,2,2,1,1,1,NA,6,4,7,6,1,NA,1,NA,5,1,5,1,1,NA,2,"Grupo de teatro",NA,NA,NA,NA,4,NA,NA,NA,NA,2,2,4,4,4,4,3,1,4,3,2,3,5,2,3,3,2,4,3,2,3,4,3,3,3,2,3,4,2,2,2,4,2,3,3,3,4,4,4,3,2,4,4,2,4,3,4,3,5,7,2,2,6,5,1,2,2,2,2,2,2,4,1,2,1,1,1,6,2,2,2,4,2,1,1,2,3,1,5,6,7,1,2,5,4,5,5,3,5,5,5,5,4,5,4,6,2,2,2,2,1,2,1,1,2,4,2,3,2,3,1,2,1,2,1,4,6,6,7,7,6,5,1,5,3,5,2,5,5,3,3,5,5,2,4,5,5,3,4,4,3,4,4,4,2,5,5,4,3,3,4,3,2,3,3,4,4,4,2,2,3,4,3,2,3,2,4,4,2,4,4,4,4,3,4,4,4,2,2
"Oxford",1953,1,1,2,3,2,1,0,0,1,10,36,35.6,36.4,51.75,74,2.777777778,5,1,3,3,2,4,1,1,NA,1,NA,3,2,1,NA,1,NA,1,NA,NA,1,1,NA,1,NA,NA,NA,NA,NA,NA,NA,NA,NA,NA,4,2,5,4,2,4,2,4,4,5,4,4,4,3,3,3,2,2,2,2,3,3,2,3,4,2,3,1,1,1,1,1,1,1,1,1,4,4,3,2,3,1,1,1,3,1,2,4,1,1,1,1,3,2,4,6,5,1,2,5,4,1,4,6,1,6,5,6,6,5,6,6,5,7,3,4,7,5,6,3,5,4,6,4,3,4,2,2,3,3,4,3,4,4,3,2,4,2,3,4,2,4,3,4,4,4,2,3,2,4,2,2,2,4,2,5,6,4,5,5,5,5,1,4,1,5,5,1,4,5,5,1,2,2,1,1,4,1,5,3,4,2,5,5,4,4,4,3,1,3,3,1,3,5,3,5,5,4,4,4,1,3,4,2,2,2,5,2,5,2,4,2,4,5,2,4,5,1,1
"Oxford",1953,2,6,1,3,2,1,1,0,2,NA,36.45,36.5,36.4,51.75,74,2.777777778,5,1,1,4,4,1,NA,1,NA,1,NA,4,4,2,6,2,8,2,8,3,3,1,NA,2,"WI","Cycling group","tai chi class",NA,NA,10,5,6,NA,NA,3,2,3,5,2,2,1,2,2,4,4,5,1,4,2,3,3,2,2,2,3,2,2,3,4,2,1,2,2,2,2,2,2,2,2,2,2,2,2,2,2,2,2,2,2,2,2,3,2,3,4,2,5,2,5,3,3,5,2,1,4,2,3,6,3,2,2,3,2,2,2,1,3,3,2,2,2,2,1,2,2,2,5,5,5,5,5,5,5,2,5,5,5,4,3,4,4,4,4,2,3,1,2,2,2,3,1,2,1,2,2,2,1,4,2,5,8,6,6,6,2,2,1,4,2,5,5,5,4,2,5,1,2,2,2,2,4,2,4,4,3,5,3,5,4,5,5,5,3,4,4,3,1,3,4,4,2,4,2,4,4,2,2,1,2,4,1,2,2,4,4,4,2,4,4,4,4,2,4
"Kassel",1955,1,3,1,3,2,1,0,0,2,NA,36.3,36.3,36.3,48.401504516602,89,1,1,1,4,4,3,2,2,1,NA,8,4,3,3,1,NA,1,NA,3,4,8,1,1,NA,1,NA,NA,NA,NA,NA,NA,NA,NA,NA,NA,5,4,5,5,2,4,3,5,2,2,4,4,2,1,3,2,2,2,2,2,2,2,2,3,4,2,1,4,4,4,4,3,4,4,2,4,5,5,5,5,4,3,4,3,2,2,5,6,4,2,4,5,4,4,3,2,2,6,5,6,2,2,2,3,1,6,5,6,2,5,2,2,2,2,3,6,5,7,4,7,7,3,6,4,5,5,4,2,2,3,4,2,7,5,6,6,6,5,5,2,2,1,2,1,2,2,2,1,1,2,2,1,1,4,2,5,5,5,2,3,2,4,5,2,1,4,3,4,4,4,4,3,2,1,1,1,4,2,4,2,2,4,4,3,3,4,4,2,3,2,2,3,2,3,3,4,4,4,4,3,2,2,3,4,1,2,1,4,2,4,4,2,4,2,2,2,3,1,1
"Chile",1957,1,7,1,2,2,1,10,3,1,NA,36.1,36.2,36,33.449996948242,55,12,2,1,1,4,4,2,2,2,1,5,1,8,4,2,1,2,8,5,8,8,1,1,NA,1,NA,NA,NA,NA,NA,NA,NA,NA,NA,NA,4,5,5,4,5,4,5,4,5,2,4,5,4,2,2,4,2,3,2,2,2,2,2,2,4,2,2,2,1,1,4,1,1,2,1,1,1,1,1,1,1,1,1,1,1,1,1,1,1,1,1,1,4,1,1,7,1,6,1,1,2,1,1,3,1,6,2,2,2,2,2,1,1,2,2,2,2,2,1,2,2,4,2,5,5,5,5,5,5,5,5,5,1,2,2,1,2,2,2,1,2,2,2,1,2,3,2,1,1,1,2,3,3,4,2,4,5,2,3,2,1,1,2,4,2,4,4,3,4,3,3,2,2,2,2,2,3,2,2,4,3,3,3,2,4,3,3,4,3,3,3,3,2,2,2,4,4,4,4,3,2,3,4,4,3,2,2,3,2,1,1,2,3,1,1,1,1,3,1
"Oxford",1957,1,3,2,2,2,1,0,0,1,20,36.15,35.9,36.4,51.75,86,0,5,1,4,3,1,1,NA,1,NA,1,NA,8,6,1,NA,1,NA,1,NA,NA,2,1,NA,1,NA,NA,NA,NA,NA,NA,NA,NA,NA,NA,2,1,5,1,1,1,3,1,2,5,3,2,2,3,3,4,3,3,3,3,4,3,3,4,3,2,4,1,4,1,2,1,1,2,1,2,1,1,1,1,1,1,1,1,1,1,1,3,5,3,6,2,6,3,6,6,5,6,3,3,2,6,3,6,4,5,3,6,5,6,2,5,6,5,5,3,6,6,5,6,6,5,6,5,5,5,5,3,2,2,4,5,7,2,3,2,3,3,4,5,5,4,5,4,4,4,5,3,4,4,3,2,2,4,2,5,7,6,6,5,6,1,5,5,5,4,1,2,1,4,2,5,3,4,5,4,2,3,2,2,1,2,4,5,2,2,2,4,3,2,3,3,2,3,3,4,2,2,4,4,2,4,2,4,2,2,4,4,2,2,2,3,2,2,2,4,2,2,2
"Chile",1958,1,1,2,3,2,1,8,0,1,NA,35.5,35.5,35.5,33.449996948242,80,12,2,1,2,1,NA,1,1,1,NA,4,4,3,3,1,NA,1,NA,4,1,2,3,1,NA,2,"JUNTA DE VECINO",NA,NA,NA,NA,2,NA,NA,NA,NA,3,3,4,3,3,4,3,3,3,4,3,4,3,2,2,3,3,2,2,2,4,3,2,2,3,2,2,2,2,2,2,2,2,2,2,2,2,2,2,2,2,2,2,2,2,2,2,2,4,3,4,4,5,3,4,3,3,5,4,4,4,3,4,3,3,3,3,4,3,3,4,2,3,3,3,3,3,2,4,4,4,3,4,4,4,4,4,4,3,3,4,4,4,5,6,6,6,6,6,3,2,2,2,2,3,2,3,3,3,2,3,4,2,3,3,3,5,5,1,5,5,5,2,4,5,4,2,4,3,3,4,4,4,2,3,4,3,4,4,4,3,3,4,4,3,4,4,4,3,4,4,3,3,3,3,3,4,4,4,4,3,3,3,3,3,3,2,4,3,3,3,4,3,3,3,4,3,2,3
"Oxford",1958,2,7,1,3,2,1,0,0,2,NA,36.6,36.5,36.7,51.75,86,0,5,1,1,1,NA,2,2,1,NA,1,NA,7,3,1,NA,1,NA,3,1,8,2,1,NA,2,"choir",NA,NA,NA,NA,5,NA,NA,NA,NA,2,4,3,4,2,3,2,2,3,4,4,4,4,3,3,4,2,3,2,3,3,3,3,3,4,2,3,2,2,2,2,2,2,2,2,2,2,2,2,2,2,2,2,2,2,2,2,2,2,2,2,2,3,2,3,2,2,2,2,2,2,2,4,5,2,2,2,2,2,2,2,2,2,2,2,3,2,2,2,2,2,2,3,5,4,5,5,4,5,5,5,5,3,3,3,3,2,2,3,2,2,4,3,2,3,3,2,2,2,2,4,4,2,4,3,4,6,6,4,4,3,1,2,4,3,4,3,2,3,2,2,4,2,2,2,3,3,2,3,3,2,3,4,2,4,4,4,4,2,4,4,2,2,4,2,2,4,3,2,2,2,4,3,4,2,2,2,3,4,2,3,3,4,2,3,4,3,2,3
"Chile",1958,2,7,1,3,2,2,0,13,1,NA,36.6,36.6,36.6,33.449996948242,69,12,2,1,1,4,4,2,2,4,4,5,5,5,5,2,1,1,NA,5,8,8,2,1,NA,1,NA,NA,NA,NA,NA,NA,NA,NA,NA,NA,5,5,5,5,5,5,5,3,5,3,5,5,5,3,3,4,2,3,1,1,2,1,2,3,3,1,3,5,3,1,3,1,3,4,2,3,5,5,5,5,3,1,1,1,1,1,5,1,1,1,1,1,1,1,1,1,1,1,1,1,1,1,7,1,1,1,1,1,1,1,1,1,1,1,1,1,1,1,1,1,1,1,1,5,5,5,5,5,1,1,5,5,1,4,4,4,1,1,1,1,1,1,1,1,1,1,1,1,1,1,5,1,1,3,1,5,6,4,1,2,2,1,1,5,1,5,4,4,5,5,3,4,1,3,4,2,1,1,5,4,3,5,4,5,5,5,5,5,1,3,5,1,1,5,1,5,5,5,5,1,1,3,3,5,3,3,5,5,3,5,5,5,1,3,5,3,5,3,3
"Bamberg",1958,2,5,2,3,2,1,0,0,2,NA,36.8,36.7,36.9,51.266693115234,89,9,1,1,3,2,2,1,NA,5,NA,2,2,5,2,1,NA,1,NA,3,1,8,2,1,NA,1,NA,NA,NA,NA,NA,NA,NA,NA,NA,NA,3,3,3,2,1,2,2,3,4,3,5,2,3,3,4,4,2,2,4,2,4,3,3,3,4,3,3,2,2,1,2,2,1,1,1,1,4,4,2,1,1,1,2,1,1,1,2,2,3,4,2,2,5,2,5,2,6,3,2,4,4,5,3,2,2,6,6,1,6,7,6,6,6,6,5,4,5,5,6,7,6,3,5,4,4,3,5,4,5,3,5,5,5,6,5,6,6,4,4,4,4,3,3,2,4,4,4,4,2,4,1,1,2,3,2,5,7,5,6,3,5,1,2,4,4,4,2,2,2,1,2,5,3,2,4,5,5,3,3,2,1,3,5,5,3,3,3,2,1,2,3,1,3,5,3,3,4,5,5,4,2,4,5,3,2,1,3,3,4,2,1,3,2,4,2,3,2,2,1
"Oxford",1959,1,6,2,1,2,1,1,0,2,NA,35.75,35,36.5,51.75,74,2.777777778,5,1,4,2,2,4,4,5,NA,2,2,6,6,1,NA,1,NA,1,NA,NA,8,1,NA,2,"cricket club",NA,NA,NA,NA,3,NA,NA,NA,NA,1,2,2,3,2,2,1,1,2,1,3,1,2,3,3,4,3,2,4,4,4,4,4,2,4,3,3,3,3,3,3,4,2,3,4,3,3,3,3,3,3,3,3,3,3,3,3,5,4,4,4,4,4,4,4,4,4,4,4,4,4,4,4,6,4,5,4,4,4,4,4,4,4,4,4,4,4,4,4,4,4,4,4,4,4,4,4,4,3,3,4,4,7,7,7,7,7,7,6,4,4,4,4,5,4,4,3,3,4,2,1,4,2,2,3,4,6,6,6,4,5,4,4,4,3,5,4,3,3,3,3,2,3,1,3,3,5,3,4,4,3,3,4,4,4,3,3,3,3,4,3,3,3,3,3,3,5,4,4,4,4,3,3,3,2,3,2,3,4,3,3,3,3,3,4,3,3,2,3
"Zurich",1959,2,7,1,5,2,1,0,0,2,NA,36,35.8,36.2,47.166107177734,75,8,1,1,1,4,4,1,NA,2,2,6,5,8,5,2,1,1,NA,1,NA,NA,3,2,4,1,NA,NA,NA,NA,NA,NA,NA,NA,NA,NA,3,5,5,4,4,4,5,3,5,5,4,5,5,1,1,2,1,4,2,2,1,1,2,1,3,1,1,1,2,2,2,1,1,1,2,2,3,2,3,4,3,1,4,2,3,1,2,1,1,1,2,2,2,1,1,1,1,1,1,2,1,2,4,1,2,1,2,2,2,2,4,1,1,1,1,1,2,1,1,4,4,1,1,5,5,5,5,5,4,4,2,3,2,2,3,3,1,2,2,1,1,1,2,1,1,1,1,1,1,1,3,3,3,3,2,2,2,4,2,3,2,3,3,2,1,5,5,1,2,2,2,1,1,2,2,2,2,2,1,2,2,3,3,4,4,3,3,2,2,2,2,2,2,2,2,1,3,3,3,3,4,2,2,4,2,2,3,4,2,2,3,4,2,3,4,3,3,4,3
"Bamberg",1959,1,5,2,2,2,1,7,0,2,NA,36.2,36.3,36.1,49.897201538086,68,10,1,1,4,4,2,2,2,1,NA,1,NA,2,2,1,NA,1,NA,1,NA,NA,1,1,NA,1,NA,NA,NA,NA,NA,NA,NA,NA,NA,NA,2,3,2,4,2,3,2,4,2,1,3,2,1,4,5,4,3,3,3,3,4,4,4,4,3,3,4,1,2,1,1,4,4,1,2,2,4,4,4,4,4,1,1,1,2,1,4,7,7,6,6,6,7,6,6,7,5,6,5,4,4,6,4,5,1,5,3,6,3,5,4,2,4,3,3,4,4,5,4,6,6,4,4,3,2,2,3,3,3,3,4,4,7,4,4,4,5,5,5,5,5,2,5,5,5,5,4,2,5,4,2,2,2,5,2,5,8,7,7,8,8,8,2,4,3,2,1,2,3,4,2,5,4,3,3,4,3,3,3,3,1,3,5,5,1,3,3,3,2,1,3,2,2,4,2,1,3,5,4,2,1,5,4,1,3,2,2,2,4,2,2,3,4,3,5,4,3,5,4
"Bamberg",1959,1,6,1,4,2,1,13,0,2,NA,36.25,36.5,36,50.516693115234,90,-2,1,1,1,3,3,4,4,2,2,8,4,3,1,2,1,1,NA,3,6,8,1,1,NA,1,NA,NA,NA,NA,NA,NA,NA,NA,NA,NA,4,2,5,2,3,5,1,2,2,2,4,4,4,2,5,5,3,3,3,3,4,2,2,4,4,2,3,1,1,1,1,2,1,1,1,1,4,1,1,1,1,1,1,1,1,1,1,7,4,1,4,5,6,1,5,7,1,1,5,4,1,5,5,2,1,1,2,4,1,4,1,2,2,2,1,1,1,1,1,6,4,1,2,5,4,5,5,5,4,5,5,4,6,5,3,2,6,6,6,2,2,3,2,4,2,3,1,1,3,2,3,1,1,2,3,4,6,5,5,2,2,4,3,3,4,5,3,2,1,2,2,5,3,4,3,4,4,2,5,3,5,5,4,4,5,5,5,5,2,2,4,3,1,2,2,3,3,4,4,1,2,3,4,3,2,2,3,4,5,4,3,3,3,2,3,2,2,3,4
"Kassel",1959,2,7,1,5,2,1,0,0,2,NA,36.6,36.6,36.6,48.766693115234,NA,NA,1,1,1,3,3,1,NA,1,NA,4,2,6,5,1,NA,1,NA,3,1,8,3,2,3,1,NA,NA,NA,NA,NA,NA,NA,NA,NA,NA,2,1,5,4,2,4,5,5,2,4,5,2,3,5,2,2,2,2,1,1,2,1,1,3,5,1,2,2,4,1,4,1,3,1,1,2,4,2,4,2,2,1,1,1,2,1,2,2,1,1,2,6,1,1,2,1,1,1,2,1,1,1,1,1,1,1,1,2,2,2,2,2,1,1,1,1,1,1,1,5,1,1,1,5,5,4,5,5,5,4,5,5,5,5,4,6,4,3,5,1,1,1,2,4,1,1,2,2,1,1,2,1,2,3,2,5,6,3,2,2,2,2,1,3,1,5,4,5,3,2,5,5,4,1,1,5,5,1,5,4,2,5,3,4,5,5,5,5,2,2,4,2,1,1,1,1,4,4,4,2,2,3,1,4,3,2,1,5,5,5,5,4,3,2,4,4,4,2,1
"Bamberg",1959,1,7,1,4,2,1,0,0,2,NA,38.4,38.4,38.4,50.15739440918,86,0,1,1,1,1,NA,2,2,2,2,1,NA,2,5,1,NA,1,NA,2,1,5,7,1,NA,1,NA,NA,NA,NA,NA,NA,NA,NA,NA,NA,1,5,2,5,1,3,5,5,5,5,4,1,1,3,4,3,3,2,3,3,3,2,3,3,4,2,4,1,4,1,4,1,1,2,1,3,3,4,1,3,1,1,2,1,1,1,1,5,1,1,4,1,6,1,2,2,1,2,4,2,4,2,1,1,1,1,1,4,1,1,1,1,1,1,1,1,1,1,1,5,5,1,1,5,5,5,5,4,2,1,4,3,4,7,1,7,7,7,1,1,1,1,1,1,1,1,1,1,1,1,1,1,1,1,1,4,8,7,5,2,2,7,3,3,2,4,3,2,2,2,3,3,2,1,4,4,4,1,5,4,3,5,5,5,5,5,5,5,1,3,5,1,1,5,1,3,4,5,2,3,2,3,2,5,2,5,2,4,4,5,5,5,1,2,5,5,3,2,2
"Bamberg",1960,2,6,1,3,2,1,1,0,2,NA,36.05,35.8,36.3,51.175994873047,80,6,1,1,1,1,NA,1,NA,3,1,1,NA,4,1,1,NA,1,NA,2,1,7,3,1,NA,1,NA,NA,NA,NA,NA,NA,NA,NA,NA,NA,2,2,5,3,4,3,2,3,2,3,4,5,4,2,3,4,2,2,2,3,3,3,2,4,4,3,2,1,3,1,3,1,1,3,2,1,2,2,2,2,1,1,1,1,1,1,2,1,1,1,1,1,2,1,1,1,1,1,2,1,2,1,1,2,1,1,2,1,4,1,1,6,2,7,2,4,1,2,2,7,7,1,2,4,4,4,4,4,2,1,1,1,1,1,1,1,1,1,3,2,2,3,2,2,2,2,1,2,1,2,2,2,2,3,1,5,7,6,6,6,6,6,3,3,4,4,3,1,5,5,1,2,4,2,4,4,2,3,1,3,3,4,4,4,4,3,4,4,1,4,4,1,1,3,2,1,1,3,2,3,2,2,2,4,1,1,3,4,3,3,3,3,4,2,3,3,2,4,2
"Oxford",1960,1,7,2,2,2,1,8,1,1,10,36.15,35.8,36.5,51.75,86,0,5,1,4,2,2,1,NA,5,NA,1,NA,3,1,1,NA,2,1,3,1,8,1,1,NA,1,NA,NA,NA,NA,NA,NA,NA,NA,NA,NA,2,1,2,5,2,2,2,1,4,5,4,2,2,3,3,4,2,2,2,3,2,2,3,3,4,2,3,2,4,2,4,2,2,4,2,4,1,1,1,1,1,1,1,1,1,1,1,1,1,1,1,1,4,1,7,7,1,7,1,1,1,7,1,1,1,1,7,6,7,1,1,1,7,7,7,7,7,7,1,7,7,7,7,5,1,5,3,1,5,5,5,1,7,2,5,3,3,5,5,3,1,1,1,1,3,1,2,1,1,1,1,1,3,1,1,3,4,1,2,2,2,2,2,4,4,4,2,2,2,2,2,5,4,3,4,4,4,3,3,4,1,1,5,5,2,3,1,1,1,1,1,1,1,1,1,1,1,4,1,5,1,4,3,2,1,1,3,3,3,2,2,2,5,1,1,4,2,1,1
"Bamberg",1960,2,7,1,2,2,1,1,0,1,20,36.5,36.3,36.7,52.516693115234,79,-4,1,1,1,4,2,1,NA,1,NA,8,2,5,5,1,NA,1,NA,1,NA,NA,3,1,NA,1,NA,NA,NA,NA,NA,NA,NA,NA,NA,NA,3,3,3,4,2,3,3,3,3,5,4,4,4,2,2,2,2,2,2,2,2,3,2,3,3,2,2,2,3,1,3,1,1,2,2,3,3,2,3,1,4,1,2,2,2,3,3,4,2,2,2,4,4,2,2,2,2,6,2,4,2,2,2,2,2,2,2,4,2,2,2,2,2,2,2,2,2,2,2,4,4,2,4,5,5,5,5,3,5,4,4,4,3,3,4,3,3,5,4,2,2,2,3,1,1,2,2,3,2,1,2,2,2,4,1,5,5,3,3,4,2,5,2,2,3,5,4,3,3,3,3,3,2,2,2,3,3,2,3,3,2,4,4,4,4,3,4,2,3,2,3,3,2,2,3,2,3,4,3,2,2,3,3,3,3,2,4,4,4,3,3,4,4,2,4,4,3,4,2
"Portugal",1961,1,7,1,1,2,1,0,0,2,NA,36.5,36.6,36.4,38.716705322266,91,9,8,1,1,3,3,2,2,4,1,8,3,8,3,1,NA,1,NA,1,NA,NA,4,2,3,2,"Livre",NA,NA,NA,NA,7,NA,NA,NA,NA,4,4,5,2,3,5,5,4,4,5,5,3,4,4,3,2,3,2,2,3,2,4,3,3,3,2,2,1,1,1,1,2,1,1,1,1,3,1,1,1,1,1,1,1,1,1,1,1,1,1,1,1,1,1,2,1,1,1,5,2,5,1,5,2,1,2,4,7,1,2,2,2,4,4,1,4,3,1,1,7,6,4,1,5,5,5,5,5,5,3,4,3,6,5,6,4,5,5,6,1,1,1,2,2,1,1,2,2,1,1,3,1,3,2,3,4,5,7,2,2,2,3,1,2,2,4,4,5,3,5,4,3,2,3,3,4,4,4,5,4,4,3,3,4,3,1,4,1,2,2,3,4,2,2,4,5,4,4,4,5,2,5,5,5,1,4,1,5,2,4,4,5,4,4,4,4,3,2,4
"Poland",1962,1,7,1,3,2,1,19,19,2,NA,36.75,37,36.5,52.59309387207,77,NA,9,1,1,3,3,4,4,4,4,8,3,8,3,2,1,2,8,3,4,5,2,1,NA,1,NA,NA,NA,NA,NA,NA,NA,NA,NA,NA,1,1,1,1,2,2,1,4,2,2,3,2,2,3,4,5,4,3,4,3,2,3,3,5,5,4,4,4,4,3,2,4,5,2,2,4,4,4,4,4,4,3,2,3,3,2,4,6,6,5,4,6,5,4,5,6,6,2,4,4,7,2,7,2,2,2,2,4,3,2,2,1,5,5,3,3,3,2,2,6,4,6,2,4,4,4,3,3,5,5,5,4,6,3,3,5,5,4,5,5,4,4,4,3,4,4,4,5,3,3,2,4,1,5,2,4,5,4,2,2,2,2,4,4,3,3,2,2,2,3,2,4,3,4,4,4,2,4,1,3,3,4,2,3,5,5,4,5,4,4,4,4,1,2,3,2,2,4,2,2,1,2,2,5,2,2,2,3,3,3,4,4,2,1,3,3,3,4,3
"Oxford",1963,2,5,2,4,1,1,0,0,2,NA,36.45,36.3,36.6,51.75,74,2.777777778,5,1,4,2,2,1,NA,5,NA,8,2,8,4,1,NA,1,NA,3,1,8,1,1,NA,2,"Dance group",NA,NA,NA,NA,5,NA,NA,NA,NA,3,5,2,2,4,4,3,3,5,1,4,5,2,1,3,3,2,3,2,3,3,3,2,4,4,2,3,1,1,1,2,4,2,1,2,1,4,1,4,4,4,2,1,1,2,4,4,4,4,4,4,4,4,4,4,5,4,3,4,4,6,4,7,4,4,5,6,4,4,4,6,7,4,4,3,4,5,4,6,4,4,5,4,5,5,5,5,5,3,3,3,1,5,7,5,4,4,4,5,1,4,1,1,2,2,2,1,3,1,1,3,3,1,2,3,5,6,6,5,5,5,5,2,1,1,5,5,4,1,2,4,1,3,4,1,4,4,1,5,4,2,2,3,4,5,3,4,2,4,4,2,3,3,2,3,1,4,4,3,4,3,2,5,2,2,1,1,1,2,2,2,2,4,3,2,3,3,5,1
"Bamberg",1963,1,6,1,3,2,1,2,0,2,NA,36.45,36.3,36.6,50.11669921875,73,-1,1,1,1,3,3,4,2,2,1,1,NA,4,2,2,1,1,NA,1,NA,NA,1,1,NA,1,NA,NA,NA,NA,NA,NA,NA,NA,NA,NA,3,2,5,4,2,2,3,3,4,4,4,5,4,2,3,3,2,2,2,2,2,2,2,3,4,2,2,2,4,1,2,2,1,2,2,2,1,2,1,2,1,4,1,1,2,3,3,5,2,6,5,6,4,2,3,2,1,2,7,2,3,2,5,2,1,2,2,2,2,2,2,1,3,2,4,1,3,3,1,7,4,3,3,4,4,4,4,4,4,4,4,4,3,3,4,4,3,3,3,2,3,1,3,2,1,2,2,2,2,2,2,2,2,4,3,3,3,3,2,2,2,3,4,2,3,4,3,1,3,4,1,3,1,5,3,4,4,3,2,5,4,4,2,3,3,4,3,4,1,3,3,1,2,4,3,1,3,3,2,4,2,3,3,2,2,4,2,4,4,4,4,2,4,2,2,2,2,4,1
"Oxford",1964,1,7,1,4,2,1,1,0,2,NA,35.3,35.3,35.3,51.75,71,1.666666667,5,1,2,1,NA,1,NA,5,NA,1,NA,8,8,2,8,2,8,1,NA,NA,6,2,8,2,"church","drop-in","class","community support","health etc discussions",7,7,7,7,7,4,3,4,2,2,3,3,4,2,2,4,3,2,2,3,4,1,1,1,3,3,1,3,3,3,1,3,3,3,3,3,3,3,3,3,3,3,3,3,3,3,3,3,3,3,3,3,2,4,4,5,6,2,2,4,2,2,2,3,5,5,4,6,2,4,5,5,5,3,4,5,4,3,3,3,5,4,2,3,3,6,2,3,5,3,4,5,3,5,5,5,4,3,5,5,5,5,5,5,1,2,1,2,1,1,1,2,2,1,2,1,2,4,5,2,5,7,5,2,2,2,3,2,2,4,4,4,1,3,2,2,2,2,2,2,2,2,2,2,2,2,2,5,2,3,4,4,3,3,3,2,3,2,3,2,2,2,4,2,4,2,4,3,4,2,1,4,2,1,1,1,2,2,1,2,1,2,5,5
"Oxford",1964,2,5,2,3,2,1,0,0,2,NA,35.65,34.8,36.5,51.75,71,1.666666667,5,1,4,1,NA,1,NA,1,NA,1,NA,4,4,1,NA,1,NA,2,8,6,3,1,NA,1,NA,NA,NA,NA,NA,NA,NA,NA,NA,NA,5,3,5,2,4,2,2,3,3,3,2,4,3,3,3,3,4,3,2,2,2,2,2,3,3,3,3,5,5,2,5,5,5,5,3,5,4,5,5,5,5,5,4,5,5,5,4,2,5,6,5,3,5,5,6,6,7,6,3,4,6,5,4,3,3,1,3,3,1,3,2,2,2,3,3,3,2,3,2,1,5,2,4,4,3,3,4,3,2,2,3,3,6,4,4,5,5,5,4,3,4,2,3,4,4,3,3,3,3,3,3,3,2,3,2,3,4,5,2,3,3,1,2,4,4,4,3,2,3,4,4,3,2,1,3,3,3,3,3,2,2,3,1,3,4,4,3,4,3,4,4,1,2,2,3,1,3,3,5,3,3,3,2,4,3,3,4,3,4,3,3,3,3,4,4,4,3,2,2
"Poland",1964,1,5,1,2,2,1,0,0,2,NA,36.75,36.6,36.9,52.233306884766,79,8,9,1,1,2,2,4,4,2,2,1,NA,4,3,1,NA,2,8,6,8,8,3,1,NA,1,NA,NA,NA,NA,NA,NA,NA,NA,NA,NA,2,3,3,3,3,4,3,3,4,3,5,4,4,2,3,4,4,4,4,3,2,4,3,3,3,4,3,4,3,3,3,4,2,3,3,3,4,4,4,4,4,3,3,3,4,3,3,4,4,4,4,4,4,4,4,4,4,4,4,4,4,4,6,4,4,4,2,4,4,4,4,1,4,4,2,4,4,4,4,4,4,4,4,4,4,4,4,4,4,4,4,4,3,4,4,4,4,2,3,1,1,3,3,3,2,3,2,3,1,1,3,1,1,3,2,3,4,4,2,3,2,2,1,4,3,3,3,3,3,3,3,3,3,3,3,3,3,3,3,3,3,4,2,4,4,3,3,3,3,3,3,3,3,3,3,2,3,3,3,2,3,3,3,3,3,3,3,3,3,3,2,3,3,3,3,3,3,3,3
"Kassel",1965,1,7,1,4,2,1,3,0,2,NA,35.45,35.5,35.4,48.766693115234,NA,NA,1,1,1,5,3,1,NA,1,NA,1,NA,3,3,1,NA,1,NA,3,8,8,3,1,NA,1,NA,NA,NA,NA,NA,NA,NA,NA,NA,NA,2,4,5,4,2,1,2,4,5,4,5,4,5,2,2,3,1,2,1,2,5,1,2,2,3,3,2,2,3,3,2,2,1,1,2,2,2,2,2,1,1,1,1,1,2,1,1,1,1,1,1,1,1,1,1,1,1,1,1,6,1,1,1,2,1,1,1,1,1,2,1,1,1,1,2,1,1,2,5,2,2,1,1,5,5,4,5,5,5,5,5,4,3,3,2,3,2,3,3,2,1,1,2,1,1,1,1,1,2,1,1,1,2,1,5,5,5,4,1,1,1,4,3,3,2,4,4,3,3,3,4,4,4,2,2,2,4,1,1,2,3,4,3,4,5,5,5,5,1,2,4,1,1,2,1,2,3,4,3,2,2,2,5,4,2,2,1,4,3,4,4,5,2,1,3,2,2,3,1
"Chile",1965,1,7,1,3,2,1,0,5,2,0,36.55,36.4,36.7,33.449996948242,80,7,2,1,1,3,3,4,4,1,NA,8,8,8,7,1,NA,1,NA,5,8,8,2,1,NA,1,NA,NA,NA,NA,NA,NA,NA,NA,NA,NA,3,4,5,4,3,2,2,2,5,2,4,3,5,1,3,2,3,2,2,2,2,2,2,2,3,2,2,4,2,1,3,2,1,2,3,2,4,2,4,2,3,2,1,2,2,1,3,2,1,2,2,2,7,1,2,3,1,4,2,1,2,1,2,2,2,2,1,2,2,1,1,2,1,2,2,2,2,1,2,6,6,3,2,4,5,4,5,4,3,3,5,4,2,2,2,1,2,1,2,2,2,3,2,2,1,2,2,2,1,1,2,1,2,1,1,4,4,5,1,6,6,1,3,3,4,4,2,2,4,4,2,5,3,4,4,4,2,4,3,5,4,4,5,4,3,2,4,4,4,4,5,5,1,1,3,4,4,5,4,5,2,2,3,4,4,2,2,3,4,2,2,3,1,4,2,3,2,4,3
"Portugal",1965,2,7,1,4,2,1,1,0,2,NA,36.9,37,36.8,38.716705322266,91,9,8,1,1,3,3,4,4,2,2,8,3,8,4,2,1,1,NA,3,8,8,3,1,NA,2,"CampoVivo",NA,NA,NA,NA,2,NA,NA,NA,NA,4,3,4,5,5,4,3,2,3,4,4,2,4,2,3,3,2,2,2,2,3,2,2,2,4,2,3,3,3,1,2,4,1,2,3,2,5,4,4,3,4,1,1,1,1,1,4,2,1,2,2,3,7,2,1,4,1,1,1,2,1,2,3,1,1,1,1,1,4,2,1,1,1,4,4,4,1,1,1,1,5,1,1,5,5,5,5,5,5,4,4,5,3,4,5,4,3,4,3,1,2,1,3,1,1,1,2,5,1,1,3,2,2,2,3,4,6,6,2,4,1,2,2,4,4,4,4,3,3,4,4,4,1,2,2,3,3,5,5,5,4,3,4,5,3,1,3,1,2,2,4,4,2,4,4,2,3,4,3,3,2,1,2,4,3,2,1,5,5,5,4,4,2,2,3,4,2,3,1
"Oxford",1966,1,6,1,3,2,1,1,1,2,NA,35.25,34.5,36,51.75,74,2.777777778,5,1,1,1,NA,4,4,4,1,1,NA,8,8,1,NA,1,NA,2,1,2,2,1,NA,1,NA,NA,NA,NA,NA,NA,NA,NA,NA,NA,3,3,4,4,4,2,2,3,3,4,5,3,5,2,4,5,2,2,4,2,4,3,2,5,4,3,4,2,4,2,3,2,1,4,1,2,4,2,4,4,3,2,1,2,5,1,3,6,5,4,6,6,5,4,4,2,7,6,6,5,3,4,6,5,4,4,6,4,5,2,3,4,4,2,3,4,4,4,4,5,6,3,5,4,2,4,3,2,3,4,4,2,7,6,6,6,7,6,6,4,1,2,2,4,4,2,2,2,4,4,2,2,2,2,2,5,8,6,4,6,7,6,2,5,5,4,1,1,1,4,2,5,2,2,4,4,2,3,2,1,2,5,5,5,4,4,4,3,2,2,4,2,2,4,3,2,4,5,5,3,4,3,3,2,2,1,4,4,5,3,2,4,4,4,3,5,3,3,2
"VCU",1966,2,7,2,4,2,1,0,0,2,NA,36.36111111,35.94444444,36.77777778,37.751007080078,92,10,5,1,3,3,3,2,2,1,NA,6,6,3,2,2,1,2,2,3,1,1,2,2,2,1,NA,NA,NA,NA,NA,NA,NA,NA,NA,NA,3,2,5,5,2,5,1,1,5,5,1,1,5,2,3,5,1,1,1,4,3,1,2,3,5,1,2,2,1,2,1,2,1,2,4,1,1,1,1,1,1,1,1,1,1,1,1,7,7,7,7,7,7,7,7,7,6,2,7,7,1,1,7,7,7,7,7,7,5,7,7,7,7,4,1,7,7,1,7,7,7,7,7,5,5,5,5,5,5,5,5,5,1,1,1,1,1,1,1,1,1,1,1,1,1,1,1,1,1,1,5,5,1,1,2,2,2,4,2,1,2,1,2,4,4,4,2,4,2,4,4,5,2,2,4,5,2,4,3,5,5,2,2,2,5,3,4,4,2,4,4,2,1,5,4,2,2,5,2,2,1,5,2,2,3,2,4,4,4,3,5,5,2,2,5,3,3,2,3
"Kassel",1966,2,6,1,3,2,1,0,0,2,NA,36.63,36.3,36.96,49.190200805664,NA,NA,1,1,1,3,3,4,2,4,4,4,2,4,3,2,3,1,NA,1,NA,NA,3,2,2,1,NA,NA,NA,NA,NA,NA,NA,NA,NA,NA,3,2,3,3,3,4,2,2,3,2,4,4,2,4,4,4,3,3,2,3,4,3,3,4,4,2,4,1,1,1,1,1,1,1,1,1,1,1,1,1,1,1,1,1,1,1,1,2,2,2,4,5,5,1,4,6,2,2,5,4,4,4,2,2,2,2,2,3,3,4,3,4,2,2,3,4,2,2,3,6,5,2,2,5,5,4,5,4,4,4,4,4,4,5,5,5,3,3,2,2,2,1,2,2,2,2,2,2,2,2,3,2,2,4,2,4,6,5,6,3,2,4,3,5,3,4,2,4,3,3,2,4,4,1,3,5,2,2,2,5,4,4,2,4,4,5,4,4,2,4,4,2,2,4,2,1,1,4,2,2,2,2,2,4,2,3,4,3,3,4,4,2,2,1,4,4,3,2,1
"Oxford",1967,2,6,2,3,2,1,0,2,2,NA,35.85,34.9,36.8,51.75,88,-2.222222222,5,1,3,3,3,3,1,5,NA,3,1,8,4,1,NA,2,8,2,8,8,3,1,NA,2,"teachers","pupils",NA,NA,NA,7,7,NA,NA,NA,3,2,5,2,3,4,5,1,4,4,5,3,4,3,2,3,2,2,2,2,3,2,2,3,5,2,2,4,4,2,4,4,2,3,4,2,1,1,1,4,1,2,1,1,3,1,4,6,6,4,6,6,6,6,5,4,6,4,6,4,6,4,4,4,4,4,6,6,7,6,4,4,4,6,2,2,7,2,4,6,7,4,4,4,4,4,4,5,5,2,2,1,1,2,1,1,2,2,2,2,2,4,3,2,3,2,2,2,2,2,2,2,2,2,3,5,3,4,2,1,1,2,1,5,3,5,1,5,1,2,4,5,4,5,2,4,4,1,4,2,3,3,4,1,5,3,3,3,3,4,3,3,3,3,3,3,2,3,2,3,2,2,2,3,3,3,1,3,3,3,4,4,3,1,3,2,4,3,1
"Bamberg",1967,2,5,1,3,2,1,0,2,2,NA,36,36,36,47,46,5,1,1,2,1,NA,2,2,2,2,1,NA,5,2,1,NA,1,NA,3,1,8,3,1,NA,1,NA,NA,NA,NA,NA,NA,NA,NA,NA,NA,3,3,4,3,3,2,3,2,4,4,2,3,3,3,3,3,4,2,3,2,3,4,2,3,3,2,2,3,2,2,4,2,4,3,4,4,3,2,3,2,1,1,2,2,2,1,2,4,3,2,3,3,5,2,2,5,3,2,2,5,3,5,2,4,2,2,2,5,4,2,4,2,2,2,2,3,3,3,2,5,6,3,3,4,4,4,4,3,5,5,4,4,6,5,5,5,4,4,5,2,2,1,2,2,3,2,2,3,2,2,3,3,2,2,2,5,7,4,2,5,6,6,1,3,2,5,4,3,3,2,3,4,3,2,2,3,4,1,4,4,2,4,5,4,4,4,3,3,4,3,4,3,2,2,3,2,3,3,2,3,3,2,3,4,2,2,1,4,4,4,2,4,3,2,4,3,3,2,3
"Oxford",1967,2,6,2,3,1,1,1,0,2,NA,36.15,36.3,36,NA,74,2.777777778,5,1,5,1,NA,2,2,2,2,8,3,8,6,2,1,1,NA,1,NA,NA,3,2,4,1,NA,NA,NA,NA,NA,NA,NA,NA,NA,NA,2,3,4,4,3,4,3,1,2,2,4,4,3,3,3,2,2,2,2,2,3,2,2,2,3,2,3,1,3,1,3,1,1,1,1,2,2,1,1,1,1,1,1,1,1,1,1,2,2,1,2,1,2,2,2,2,2,2,2,2,2,2,2,2,2,2,1,3,2,2,1,2,2,2,2,2,2,2,2,4,4,2,2,4,3,4,3,3,4,4,4,3,6,3,3,2,2,2,3,2,2,2,2,2,2,3,2,2,2,2,3,2,5,2,2,5,4,5,2,2,4,2,2,4,4,4,3,3,3,3,3,4,2,2,3,4,4,1,2,4,3,4,3,4,3,4,4,3,3,4,4,4,2,2,2,2,2,2,2,3,2,2,2,4,1,2,2,3,3,2,3,4,3,3,4,3,3,2,2
"Tsinghua",1967,1,3,2,2,2,1,NA,NA,2,0,36.55,36.6,36.5,35,67,15,7,3,4,2,3,2,2,2,1,4,4,6,4,1,1,1,6,1,6,4,1,2,1,2,"ÖÐ¹²µ³Ô±",NA,NA,NA,NA,3,NA,NA,NA,NA,3,4,3,3,4,4,2,3,3,3,3,3,2,3,3,3,3,3,3,4,3,3,4,3,2,3,3,4,3,2,2,4,1,4,4,4,4,3,4,4,4,3,4,3,3,3,4,4,4,4,4,4,4,4,4,4,4,4,4,4,4,4,4,4,5,4,4,4,4,4,4,4,3,4,4,3,3,3,4,4,4,4,3,3,3,3,3,3,4,4,3,4,3,1,3,7,7,3,3,3,4,4,3,4,3,4,4,3,3,3,3,4,3,4,2,2,2,4,3,3,1,1,1,3,4,4,2,2,3,3,3,3,4,2,2,4,3,2,3,4,3,3,4,4,3,3,3,3,2,3,3,3,4,4,3,3,3,3,3,3,3,3,4,3,3,3,2,3,4,2,2,3,3,3,3,2,3,3,2
"Oxford",1968,2,7,2,2,2,1,0,0,2,NA,35.45,34.2,36.7,51.75,88,-2.222222222,5,1,4,1,NA,4,1,5,NA,4,1,8,8,1,NA,2,8,2,1,8,4,1,NA,2,"Professional Body","Professional peer group","Yoga","Martial arts","politics",0,4,7,7,3,3,2,2,4,4,4,1,2,2,2,3,2,2,5,4,4,3,3,4,3,5,3,4,2,5,2,5,5,4,4,4,4,5,5,3,5,5,5,5,5,5,4,4,4,5,5,5,7,7,7,7,7,7,6,7,7,3,7,6,4,6,7,5,7,4,1,2,6,3,1,1,6,3,3,1,1,1,1,6,3,3,3,2,4,2,4,4,2,5,4,5,4,7,5,4,4,4,4,4,4,4,3,2,4,2,4,2,2,1,3,1,1,1,1,1,5,6,5,4,6,8,5,2,5,2,4,1,4,4,4,4,5,3,2,3,5,5,2,3,5,2,5,4,5,4,5,5,5,2,4,5,2,2,2,2,3,1,5,2,2,2,4,4,4,3,2,1,4,4,4,4,5,2,4,5,4,4,2,5
"Oxford",1968,1,7,1,2,2,1,0,0,2,NA,35.5,34.8,36.2,51.75,71,1.666666667,5,1,2,1,NA,4,1,5,NA,1,NA,6,1,1,NA,1,NA,1,NA,NA,1,1,NA,1,NA,NA,NA,NA,NA,NA,NA,NA,NA,NA,4,4,4,4,5,5,3,5,5,1,3,1,4,1,1,1,3,2,5,5,3,5,5,1,1,5,2,1,1,1,1,1,1,1,1,1,1,1,1,1,1,1,1,1,1,1,1,5,4,4,4,4,4,4,4,4,4,4,4,4,4,4,4,4,3,4,4,4,4,4,4,4,4,4,4,4,4,4,1,4,4,4,4,2,3,3,1,3,1,1,1,1,1,1,1,1,1,1,1,1,1,1,5,1,1,1,1,1,1,1,5,1,5,1,5,1,2,1,2,2,2,2,5,5,5,5,1,1,5,5,1,5,4,3,4,4,4,1,1,5,1,1,1,1,1,4,1,4,3,1,3,3,1,1,1,3,5,4,4,3,3,3,3,3,3,3,3,3,3,3,3,3,3,3,3,3,3,4,1
"Oxford",1968,1,6,1,2,2,1,0,0,2,NA,35.95,35.7,36.2,51.75,74,2.777777778,5,1,2,1,NA,4,1,5,NA,1,NA,5,1,1,NA,2,1,1,NA,NA,1,1,NA,1,NA,NA,NA,NA,NA,NA,NA,NA,NA,NA,3,4,3,4,5,4,4,4,1,1,2,5,4,3,3,3,3,3,3,3,3,3,3,3,3,3,3,3,4,3,3,1,3,1,1,4,3,3,3,3,3,3,3,3,3,3,3,4,4,4,4,4,4,4,4,4,4,4,4,4,4,4,4,4,4,4,4,4,4,4,4,4,4,4,4,4,4,4,4,4,4,4,4,1,3,4,3,3,3,1,1,1,1,4,4,4,4,1,1,3,3,3,3,3,3,3,3,3,3,3,3,3,3,3,3,1,1,1,1,1,1,2,4,4,5,4,2,1,4,4,2,5,4,3,4,5,4,2,1,4,3,3,3,3,3,3,3,3,3,3,3,3,3,3,3,3,3,3,4,3,3,3,3,3,3,3,3,3,3,3,3,3,3,3,3,3,3,3,3
"Bamberg",1968,2,6,1,4,2,1,8,1,2,NA,36.35,36,36.7,49.649993896484,90,1,1,1,1,6,6,2,2,2,1,6,4,6,6,2,5,2,8,3,8,8,5,1,NA,1,NA,NA,NA,NA,NA,NA,NA,NA,NA,NA,2,2,5,4,2,3,2,4,4,4,5,4,4,2,2,3,2,2,2,2,3,3,2,3,3,3,2,1,4,1,4,2,1,2,4,2,4,4,4,3,2,3,2,2,2,1,4,4,3,3,3,3,3,3,4,3,3,3,3,4,3,3,3,3,3,4,3,3,5,5,3,3,3,4,3,3,2,3,3,4,4,3,4,4,5,5,5,5,3,5,5,4,3,3,2,2,3,2,2,1,2,1,2,2,2,1,2,3,1,1,2,1,1,5,2,4,5,5,2,6,5,4,3,3,2,4,4,3,2,2,2,3,2,2,2,2,2,2,3,2,2,4,3,2,4,3,3,3,2,3,2,2,2,2,2,2,4,3,4,2,2,3,2,3,3,2,2,3,4,2,2,2,4,2,2,3,3,4,2
"Tsinghua",1968,2,7,2,3,2,1,0,0,2,0,36.45,36.3,36.6,30.666702270508,68,13,7,3,1,2,2,2,2,2,2,8,6,5,5,1,1,2,3,3,4,8,3,1,3,1,"ÖÐ¹²µ³×éÖ¯","Úöº£ÊªµØ¿ÆÆÕ","è¤Ù¤¹Ý",NA,NA,5,3,3,NA,NA,1,4,3,4,4,3,2,3,4,3,4,3,2,2,2,2,3,2,2,2,1,2,3,2,4,2,2,2,1,1,1,1,1,2,1,3,2,1,2,2,2,1,1,1,1,1,1,2,1,1,2,7,1,1,3,1,1,1,1,1,4,1,2,1,1,3,1,1,1,1,1,1,1,1,1,1,1,1,1,1,1,1,1,4,5,5,5,5,5,3,5,5,1,2,4,2,2,2,2,1,2,4,1,2,1,1,1,2,1,1,2,5,2,5,1,4,4,4,2,2,2,2,2,4,5,5,2,2,4,4,4,4,2,1,1,5,5,1,1,5,2,3,4,4,5,2,4,5,5,5,5,5,4,1,3,2,2,2,4,4,2,3,4,4,4,2,1,4,4,4,4,4,4,4,4,4,4,4,2
"Zurich",1968,1,4,1,3,2,1,3,0,2,NA,36.63,36.47,36.79,47,79,4,1,1,2,1,NA,2,2,5,NA,6,1,4,1,1,NA,1,NA,3,8,8,8,2,1,1,NA,NA,NA,NA,NA,NA,NA,NA,NA,NA,2,2,5,3,2,3,2,2,4,4,4,2,2,3,3,3,3,2,2,2,2,2,2,3,3,2,2,4,4,2,4,2,2,2,2,5,2,2,4,2,2,2,2,2,2,1,4,4,4,4,4,4,5,4,4,4,4,4,4,4,4,4,4,4,4,4,4,4,4,4,4,4,4,4,4,4,4,4,4,4,4,4,4,5,4,4,4,3,3,4,5,5,4,5,5,5,4,4,4,2,2,4,3,1,4,4,2,1,1,1,3,4,5,4,4,4,4,5,2,2,2,2,4,3,4,4,2,1,1,1,1,4,4,4,4,2,2,3,4,4,1,4,4,2,4,2,2,3,4,3,3,3,3,3,3,1,3,4,4,4,2,4,2,4,3,1,4,4,4,2,1,1,1,3,2,3,1,2,2
"Zurich",1968,2,7,1,2,2,1,0,0,2,NA,36.725,36.55,36.9,47.400604248047,69,4,1,1,1,1,NA,4,4,4,1,3,2,8,1,1,NA,2,6,1,NA,NA,1,1,NA,1,NA,NA,NA,NA,NA,NA,NA,NA,NA,NA,4,4,4,5,3,3,5,5,3,4,5,5,5,1,3,3,2,1,2,2,2,4,2,3,5,1,2,1,1,1,1,1,1,1,2,4,4,4,4,4,4,1,1,1,1,1,1,2,1,1,1,1,2,1,1,1,1,2,1,1,1,2,1,3,1,1,1,5,1,1,1,1,1,1,1,1,1,2,1,5,5,1,2,5,5,4,5,5,5,2,4,2,2,1,3,2,2,2,2,1,1,1,2,1,2,2,1,2,2,2,1,1,2,1,1,5,6,4,2,2,1,3,1,4,1,5,2,5,2,3,5,5,3,1,1,3,3,2,4,2,4,4,4,4,4,4,4,4,2,3,3,2,1,3,4,5,4,3,3,3,2,2,4,2,3,2,3,3,5,5,4,2,2,1,3,3,2,3,2
"Poland",1968,2,7,1,3,2,1,3,4,2,NA,36.9,36.8,37,52.25,55,-3,9,1,1,3,3,2,2,3,1,4,1,3,3,1,NA,2,3,3,1,4,3,1,NA,1,NA,NA,NA,NA,NA,NA,NA,NA,NA,NA,4,3,2,2,5,4,3,4,4,3,4,5,5,3,3,3,4,3,3,4,3,3,3,3,4,3,4,3,3,3,3,3,3,3,2,4,3,2,3,3,3,1,1,1,3,1,3,4,3,3,4,4,5,4,5,2,5,6,4,2,2,2,6,5,2,5,3,7,2,6,4,2,5,3,3,5,5,5,3,7,7,4,6,3,5,3,4,2,3,2,4,3,7,3,4,3,6,5,6,2,2,3,2,2,4,2,2,2,2,2,3,2,1,2,2,5,7,7,7,7,7,3,1,5,3,4,2,4,2,3,4,5,3,2,4,4,4,3,3,1,3,4,5,5,4,4,4,2,3,3,3,3,4,3,3,2,3,4,4,3,2,3,2,3,2,2,2,4,4,3,3,5,2,3,4,4,3,3,3
"Serbia",1968,2,6,1,3,2,1,0,0,2,NA,37.25,36.7,37.8,44.818603515625,45,10,6,1,1,1,NA,4,4,2,2,8,4,8,6,1,NA,1,NA,3,8,8,1,1,NA,2,"LN grupa","LB grupa",NA,NA,NA,4,5,NA,NA,NA,1,4,5,5,5,4,3,4,5,5,2,5,5,2,2,3,1,1,1,1,2,1,1,2,3,1,1,1,1,1,2,1,1,1,1,1,2,1,1,1,1,1,1,1,1,1,1,1,1,2,4,2,1,1,1,3,1,1,1,1,2,1,1,1,1,2,1,5,1,1,1,1,1,1,NA,1,NA,3,2,4,5,1,NA,5,5,5,5,5,4,3,3,3,3,1,1,1,1,2,2,1,1,1,2,1,1,1,1,2,1,1,1,2,1,3,1,3,2,1,1,2,1,2,2,4,4,3,2,1,1,4,2,5,4,3,4,3,3,2,5,4,4,4,4,4,4,4,1,1,2,4,3,3,3,3,2,2,4,4,4,3,2,2,1,1,1,1,1,3,4,1,1,1,1,1,1,1,1,4,2
"METU",1969,1,7,1,4,2,1,0,0,2,NA,35.85,35.4,36.3,39.923004150391,60,9,3,2,1,1,NA,4,4,4,4,3,3,5,4,1,NA,1,NA,3,1,4,1,1,NA,1,NA,NA,NA,NA,NA,NA,NA,NA,NA,NA,3,4,2,4,3,5,2,2,1,4,3,2,4,3,3,4,3,3,2,3,3,4,3,4,3,2,3,1,1,1,1,1,1,1,1,1,3,1,3,1,3,1,1,1,1,1,2,6,2,1,2,6,1,6,1,4,1,7,1,1,2,1,4,1,1,1,1,1,1,1,1,1,1,1,1,1,1,1,1,2,1,2,1,5,5,5,5,5,3,3,5,5,3,7,5,4,6,2,4,3,2,2,3,2,3,2,2,2,3,2,2,2,3,3,2,4,4,2,1,1,1,1,1,4,1,4,5,5,3,1,5,1,1,3,1,1,5,1,3,5,3,4,3,3,4,3,2,5,4,3,4,4,2,3,1,4,3,5,4,3,2,3,4,4,4,3,1,3,2,2,2,2,2,3,3,3,3,3,1
"Chile",1969,2,7,1,4,2,1,0,0,1,NA,36.35,35.9,36.8,33.449996948242,80,7,2,1,1,3,3,1,1,4,1,8,8,8,7,1,NA,1,NA,5,1,8,3,1,NA,1,NA,NA,NA,NA,NA,NA,NA,NA,NA,NA,2,3,4,4,4,5,2,3,4,3,3,4,4,4,3,3,3,2,3,3,3,3,3,3,4,3,4,4,3,2,4,2,2,4,4,4,4,3,4,4,4,2,2,2,3,2,4,2,1,1,2,1,6,1,1,1,1,7,1,1,1,1,6,5,1,1,1,2,2,2,2,1,2,1,1,1,1,1,2,4,6,2,1,5,5,4,5,5,4,4,4,4,2,6,6,4,3,3,3,3,3,2,2,4,3,4,2,2,2,4,3,4,3,2,1,5,5,6,2,4,4,1,1,2,1,5,4,5,2,2,5,4,3,1,2,2,4,2,5,2,3,2,3,4,4,4,4,4,4,4,4,4,2,2,2,2,3,3,4,2,2,4,4,4,4,4,2,2,3,4,3,4,2,4,4,4,4,2,3
"Kassel",1969,2,7,1,1,2,1,NA,0,2,NA,36.465,36.27,36.66,51.717102050781,69,-1,1,1,1,4,4,4,4,2,1,8,1,4,1,2,1,2,4,3,1,5,1,2,1,1,NA,NA,NA,NA,NA,NA,NA,NA,NA,NA,2,1,5,2,2,2,5,5,3,2,2,1,1,3,4,4,4,3,4,3,4,3,4,5,4,2,3,1,1,1,1,1,1,1,2,4,4,3,3,3,1,1,1,1,3,1,2,4,2,4,5,2,5,4,5,3,4,2,4,2,3,5,2,4,2,5,5,5,4,5,4,4,5,5,4,3,5,5,5,6,6,6,5,4,5,4,2,3,5,5,5,5,7,5,5,5,5,5,5,3,2,3,4,4,2,5,2,3,3,2,2,2,1,4,1,4,4,7,2,2,1,2,2,4,4,4,2,2,2,2,3,5,2,1,2,3,3,2,4,4,1,3,5,5,4,2,2,3,2,2,4,3,3,3,2,2,2,4,2,4,3,2,3,4,1,2,2,4,4,4,3,2,2,2,3,3,4,1,2
"VCU",1969,2,7,1,3,2,1,4,0,1,10,37.05555556,37,37.11111111,37.751007080078,71,14.44444444,5,1,1,3,3,1,NA,2,2,2,2,3,3,2,2,2,2,1,NA,NA,2,1,NA,1,NA,NA,NA,NA,NA,NA,NA,NA,NA,NA,1,1,4,3,5,4,1,3,5,2,4,5,3,3,3,5,2,3,2,2,3,4,2,4,4,3,3,1,2,2,1,1,2,1,1,2,3,3,3,2,2,2,2,2,2,2,3,2,2,4,4,4,4,2,5,4,4,4,4,2,4,4,5,2,5,5,2,6,7,6,2,4,6,6,4,6,5,4,4,6,5,6,7,4,4,3,4,4,4,4,4,4,2,4,3,3,2,5,3,1,1,2,2,1,2,2,2,1,2,1,4,2,5,2,2,3,4,4,4,4,6,1,5,5,4,4,1,1,2,3,3,5,4,2,4,4,4,3,3,1,3,3,4,3,3,3,4,2,3,4,2,3,3,3,4,3,5,4,4,3,3,4,5,4,4,3,3,3,4,3,3,4,3,4,3,4,3,4,3
"Oxford",1970,2,7,2,5,2,1,4,0,2,NA,35.75,35.3,36.2,51.75,71,1.666666667,5,1,2,1,NA,1,NA,5,NA,3,1,6,2,1,NA,2,8,3,1,3,1,1,NA,2,"Cowley Chess Club",NA,NA,NA,NA,7,NA,NA,NA,NA,4,3,4,5,4,5,5,5,2,5,5,3,4,3,4,3,3,2,2,4,1,4,2,4,4,1,1,1,2,1,2,1,1,1,2,4,2,4,2,2,1,1,1,1,1,2,1,2,5,5,7,7,2,7,7,5,5,3,6,5,1,6,7,2,1,2,3,6,7,2,3,2,3,3,2,1,3,2,2,6,6,2,7,5,1,5,4,1,5,5,5,4,7,6,7,6,5,6,6,1,1,2,1,1,1,1,1,1,2,1,1,1,1,2,1,4,4,6,1,3,4,1,4,1,3,5,2,1,5,5,1,4,1,2,4,1,1,3,2,1,1,1,5,5,5,5,5,5,2,1,4,1,1,4,2,1,1,2,2,3,2,3,4,4,1,1,4,4,4,2,3,4,3,1,4,4,2,2,4
"Oxford",1970,1,7,1,3,2,1,0,0,2,NA,35.75,34.9,36.6,NA,71,1.666666667,5,1,2,1,NA,4,4,4,1,5,2,3,1,1,NA,1,NA,2,4,6,5,1,NA,1,NA,NA,NA,NA,NA,NA,NA,NA,NA,NA,4,4,1,4,4,4,3,1,4,3,4,5,5,2,2,3,2,3,2,2,2,1,2,2,2,2,2,2,3,3,2,2,3,3,1,4,2,4,4,4,2,2,1,2,2,1,3,6,2,1,2,2,1,1,3,1,1,2,2,2,2,2,2,3,1,2,2,3,1,2,2,2,2,6,2,2,2,2,2,1,3,2,2,5,5,5,5,4,5,4,4,3,6,5,4,4,6,3,3,2,3,3,2,2,3,2,2,2,2,1,2,3,2,3,4,5,7,4,2,3,2,1,3,4,4,4,2,2,1,3,2,5,5,2,4,5,4,3,3,3,2,2,5,5,3,3,2,4,4,3,3,3,2,2,2,1,2,2,3,2,2,3,3,4,2,1,2,3,3,4,3,2,3,2,2,4,2,2,1
"METU",1970,2,2,2,2,2,1,0,6,1,2,36.15,35.9,36.4,NA,55,0,3,2,1,2,2,4,4,4,2,2,2,7,7,1,NA,1,NA,3,1,8,8,1,NA,2,"?iddetsiz ?leti?im",NA,NA,NA,NA,5,NA,NA,NA,NA,4,4,3,4,2,4,2,1,3,3,3,3,4,4,3,3,3,3,3,3,4,3,3,2,4,4,3,4,4,4,4,4,1,4,2,3,5,5,5,4,5,1,3,2,4,2,5,7,5,5,6,6,5,5,5,6,1,5,3,4,2,2,2,1,1,3,2,2,2,2,2,2,3,2,2,2,3,1,2,2,2,2,6,4,4,4,3,3,5,5,4,2,4,4,5,5,3,2,2,2,2,1,3,2,1,3,2,1,1,1,2,1,2,1,2,4,6,6,1,4,1,1,3,3,4,4,4,1,5,4,1,3,3,2,3,4,4,3,2,3,4,4,4,4,4,3,3,4,2,2,3,2,1,4,3,2,2,2,2,2,2,3,4,4,2,3,4,3,4,5,3,4,5,2,5,2,2,1,4
"Poland",1970,2,7,1,3,2,1,4,0,2,NA,36.45,36.5,36.4,54.434692382812,81,2,9,1,1,1,NA,4,2,4,2,8,2,6,1,1,NA,2,8,6,8,8,3,1,NA,1,NA,NA,NA,NA,NA,NA,NA,NA,NA,NA,4,4,4,5,4,2,3,5,4,5,4,4,4,2,2,2,5,4,4,4,5,4,3,3,3,4,1,2,2,2,1,1,1,1,1,2,2,1,2,1,2,1,1,1,2,1,2,1,1,1,1,1,1,2,1,1,7,7,7,1,1,1,2,7,1,7,1,2,1,1,1,1,1,2,2,1,2,1,1,2,2,1,2,5,5,5,5,5,5,5,5,5,2,3,3,3,3,3,3,2,4,1,2,2,2,2,2,2,1,2,3,2,1,1,2,4,5,5,3,4,3,4,1,4,4,5,2,4,2,2,2,4,2,5,4,2,4,4,2,5,3,4,4,4,4,4,4,5,2,4,4,2,1,2,1,2,2,4,2,4,2,2,3,4,2,4,1,4,5,5,4,4,2,4,5,4,4,5,5
"Bamberg",1970,2,7,1,4,2,1,3,0,2,NA,36.7,36.8,36.6,50.099395751953,76,-3,1,1,1,3,3,4,2,2,1,4,1,3,2,1,NA,1,NA,3,2,8,2,1,NA,1,NA,NA,NA,NA,NA,NA,NA,NA,NA,NA,5,5,5,4,3,4,5,5,5,4,5,5,4,2,3,2,2,1,1,2,3,1,2,3,3,1,2,1,3,2,3,1,1,1,1,4,4,4,4,1,3,1,1,1,1,1,3,6,2,2,5,2,1,3,4,1,2,5,1,4,1,1,1,1,1,1,1,5,4,4,4,2,1,1,1,4,1,2,1,5,5,1,1,5,5,5,5,2,4,5,5,5,5,4,5,5,5,5,6,2,2,1,1,2,3,2,1,3,1,2,1,1,2,3,1,5,6,5,2,4,4,4,4,2,2,5,4,3,5,5,4,1,1,2,1,1,4,2,4,3,4,5,5,4,2,3,2,5,3,3,5,1,1,3,2,2,1,5,3,2,2,2,4,3,2,2,2,2,5,5,5,5,2,1,5,4,4,3,1
"Poland",1970,2,7,1,3,2,1,14,4,2,NA,36.85,37.1,36.6,52.416702270508,59,5,9,1,1,4,4,4,4,1,1,8,8,2,2,2,8,2,8,6,1,8,3,1,NA,1,NA,NA,NA,NA,NA,NA,NA,NA,NA,NA,4,3,2,4,5,4,2,3,5,5,5,4,4,3,3,3,4,4,4,4,3,2,4,3,4,4,3,2,4,2,4,2,1,4,1,3,4,4,5,4,5,2,2,2,2,2,4,1,2,1,1,7,1,1,1,1,1,6,1,2,1,1,7,2,1,1,7,4,1,2,1,1,1,1,1,7,3,3,1,6,4,1,7,5,5,5,5,5,5,5,5,5,1,3,3,2,2,2,2,2,1,4,1,1,2,3,2,2,2,1,2,3,1,4,2,4,6,6,3,3,2,3,1,2,2,5,4,4,4,4,4,4,3,1,2,2,2,2,4,3,2,4,3,5,4,4,2,4,3,3,4,3,1,2,3,1,1,2,2,2,4,3,3,4,4,2,2,5,4,1,1,3,4,3,4,3,3,3,3
"Portugal",1971,1,6,1,2,2,1,0,0,1,20,36,36,36,38.716705322266,82,15,8,1,1,3,3,4,4,4,2,2,2,4,3,1,NA,1,NA,1,NA,NA,2,1,NA,2,"Pol¨ªtico","Social",NA,NA,NA,10,6,NA,NA,NA,3,1,4,2,2,5,1,5,4,3,3,3,4,2,3,3,2,2,2,2,3,2,1,3,5,2,3,1,2,2,3,1,1,2,2,4,4,3,4,3,4,2,4,3,3,1,4,2,2,2,2,3,2,2,2,1,2,6,3,3,2,2,3,6,3,5,1,2,1,2,5,2,1,2,1,1,1,1,2,1,1,1,1,5,5,5,5,5,4,4,5,4,3,1,1,1,2,2,3,1,2,2,3,2,1,2,1,2,1,2,3,5,3,3,3,2,2,2,2,2,2,2,1,4,3,5,4,4,3,5,1,1,1,3,4,4,4,4,4,4,4,4,4,4,4,2,2,1,5,3,1,1,3,3,3,1,3,4,3,3,2,2,4,4,3,3,1,3,4,3,3,3,4,4,4,4,3,4,1
"Oxford",1971,1,5,1,4,2,1,8,0,2,NA,36.2,35.9,36.5,51.75,74,2.777777778,5,1,1,2,1,1,NA,4,2,2,2,5,2,1,NA,1,NA,2,4,8,3,1,NA,1,NA,NA,NA,NA,NA,NA,NA,NA,NA,NA,3,3,3,4,5,4,2,3,3,4,4,4,4,2,3,3,2,2,2,3,3,2,2,2,5,3,2,5,5,4,5,4,2,5,3,4,4,4,2,3,2,3,1,1,4,2,3,2,2,2,3,4,4,5,2,7,1,7,3,2,4,1,2,3,2,2,2,3,4,3,3,3,2,6,2,3,3,2,2,4,6,2,2,3,4,4,5,4,4,3,3,3,3,5,4,4,4,3,3,1,2,1,2,1,1,1,1,1,4,1,3,1,2,3,1,4,4,2,2,2,2,1,3,4,3,4,1,3,2,3,3,5,3,4,3,4,4,2,4,1,3,2,5,3,3,2,2,3,3,3,3,3,2,3,2,4,3,4,4,3,2,3,3,4,2,1,2,1,1,2,2,2,4,3,2,2,2,2,1
"VCU",1971,2,7,2,3,2,1,76,0,2,NA,36.33333333,36.33333333,36.33333333,37.399505615234,34,8.888888889,5,1,4,2,2,4,4,5,NA,2,2,5,5,2,1,2,8,1,NA,NA,4,2,3,1,NA,NA,NA,NA,NA,NA,NA,NA,NA,NA,5,5,5,1,4,4,2,5,2,1,5,5,5,1,2,5,1,1,1,3,4,2,3,1,5,1,5,4,4,4,4,5,2,1,5,2,4,4,2,5,2,1,2,2,5,2,2,6,3,1,6,7,5,4,7,3,6,1,7,5,5,6,3,7,1,7,3,7,3,5,1,5,5,4,3,5,7,3,5,6,6,2,5,5,5,5,5,5,5,1,2,5,7,7,7,7,6,6,7,1,2,1,2,1,1,2,4,2,1,1,1,2,5,1,1,4,6,7,4,6,4,3,1,4,1,5,4,4,5,5,1,5,2,1,5,4,4,2,5,1,5,5,4,5,5,5,5,3,5,3,4,4,2,3,3,5,5,4,4,1,1,2,5,5,5,4,2,5,5,5,5,2,2,4,5,1,3,2,4
"Poland",1971,2,7,1,3,2,1,46,5,2,NA,36.45,36.5,36.4,52.233306884766,75,0,9,1,1,3,3,3,3,2,1,8,5,4,4,1,NA,2,6,2,1,1,4,1,NA,2,"sport","wino","s?siedzi",NA,NA,7,6,3,NA,NA,3,3,2,2,3,4,2,4,3,3,4,3,3,3,3,3,4,4,4,3,3,4,4,4,4,4,3,3,3,3,3,3,3,3,3,3,4,4,4,4,4,2,2,3,2,2,4,2,2,6,5,4,2,2,2,2,4,6,4,4,2,2,5,2,5,4,4,5,4,4,5,3,3,2,3,2,5,4,5,6,5,4,4,4,4,4,4,4,4,4,4,4,4,4,4,4,4,3,3,2,2,2,2,2,4,3,3,3,2,2,2,2,2,3,2,4,5,4,3,4,4,3,3,3,4,4,3,2,2,3,3,4,3,4,4,3,3,4,2,3,3,3,4,4,4,3,3,3,4,4,3,4,3,3,3,2,3,4,4,3,2,3,4,4,3,3,2,3,4,3,3,3,4,4,3,3,3,3,3
"Poland",1971,2,7,1,3,2,1,24,2,2,NA,36.5,36.1,36.9,52.066696166992,75,0,9,1,1,3,3,4,2,2,1,2,2,5,2,2,8,2,7,2,1,1,1,2,2,1,NA,NA,NA,NA,NA,NA,NA,NA,NA,NA,2,2,3,5,2,3,2,2,2,3,3,2,4,4,3,4,4,4,3,3,3,4,3,3,4,3,4,4,4,4,4,4,2,4,2,4,5,4,5,4,5,1,2,1,2,2,4,2,2,2,2,5,3,2,3,2,2,6,1,2,1,2,6,5,3,5,2,3,2,2,5,3,3,3,2,2,3,3,3,2,3,3,3,5,4,4,4,3,5,3,4,4,1,3,3,2,2,2,2,2,1,3,2,2,2,3,2,2,1,2,4,2,1,2,2,4,5,5,5,4,6,2,2,4,2,5,2,4,2,2,2,5,2,2,3,5,2,2,4,5,4,4,4,4,4,2,2,4,5,4,4,5,2,2,2,1,2,2,4,1,2,2,2,5,2,2,2,4,5,2,2,2,4,2,4,4,4,2,4
"Poland",1971,2,6,1,3,2,1,7,0,2,NA,36.65,36.6,36.7,52.25,67,2,9,1,1,3,3,4,4,4,1,6,6,6,4,2,1,2,8,3,6,8,1,1,NA,1,NA,NA,NA,NA,NA,NA,NA,NA,NA,NA,3,3,4,5,3,3,3,3,4,5,3,4,3,3,4,4,3,4,4,2,2,2,4,4,3,3,3,2,4,3,4,1,1,4,1,2,4,4,4,4,4,2,1,1,1,1,4,2,2,3,5,4,4,1,2,2,2,6,1,1,1,1,5,6,1,3,4,7,2,2,2,1,2,3,3,1,4,5,2,7,7,4,5,5,5,5,5,5,5,5,5,5,1,3,2,2,2,2,2,2,3,1,3,2,4,2,3,1,2,3,4,2,1,3,1,5,7,7,7,7,6,6,4,4,2,4,1,4,2,2,3,5,4,2,4,4,3,3,2,2,3,4,3,5,3,4,3,4,4,3,5,5,1,2,2,2,2,3,2,1,4,4,2,4,4,3,1,5,5,3,3,4,1,2,4,2,2,2,2
"Poland",1971,2,7,1,3,2,1,0,18,2,NA,36.95,37,36.9,53.233306884766,69,-5,9,1,2,1,NA,4,4,5,4,8,5,6,6,2,5,2,5,3,2,2,1,2,2,1,NA,NA,NA,NA,NA,NA,NA,NA,NA,NA,4,4,4,5,5,4,3,4,4,4,4,5,5,3,3,3,4,4,4,3,4,3,4,2,4,4,3,2,2,2,2,3,3,3,2,2,3,3,3,3,3,3,3,3,3,3,3,2,4,2,2,4,2,4,2,4,2,6,4,2,2,2,4,2,1,2,2,5,2,1,1,2,2,2,2,2,2,2,2,3,4,2,2,5,5,5,5,5,5,5,5,5,5,3,4,3,3,3,4,2,3,3,3,1,2,2,3,3,1,1,2,2,1,3,2,3,5,5,5,5,5,5,1,5,1,5,1,4,3,3,4,5,3,1,1,5,5,1,5,3,3,4,3,4,4,5,4,5,5,4,4,4,2,2,2,4,3,3,3,2,3,3,3,4,3,3,1,1,4,4,3,4,3,4,4,4,4,2,3
"METU",1972,2,7,1,3,2,1,1,1,2,NA,35.7,35.4,36,41.013595581055,64,2,3,2,1,2,8,4,2,4,4,6,3,6,3,1,NA,2,2,3,1,8,1,1,NA,2,"1",NA,NA,NA,NA,NA,NA,NA,NA,NA,2,3,5,2,3,2,3,3,3,5,3,3,3,3,3,3,3,3,3,2,3,3,3,3,3,3,2,3,3,4,4,4,1,2,4,2,5,3,4,3,4,1,1,3,3,4,3,6,5,5,4,6,2,5,5,5,5,5,4,3,3,3,6,5,2,2,3,2,6,3,3,2,6,2,2,2,3,2,3,2,2,4,3,5,5,5,4,5,5,4,4,3,6,4,4,4,3,4,4,3,4,3,4,3,4,3,2,4,3,2,4,3,3,4,2,3,6,5,3,3,4,4,1,1,5,3,2,1,4,4,3,4,4,2,2,3,3,4,3,4,3,4,4,4,4,4,3,5,5,4,4,4,1,1,5,4,3,4,3,3,3,3,3,4,4,4,1,5,2,4,4,3,2,4,4,3,3,2,4
"Oxford",1972,2,7,1,3,2,1,3,0,2,NA,36.3,35.7,36.9,51.75,71,1.666666667,5,1,1,4,4,2,2,1,NA,8,4,7,3,1,NA,1,NA,3,1,4,8,2,4,2,"Forest school","aikido",NA,NA,NA,3,5,NA,NA,NA,3,4,2,2,3,1,1,1,1,2,2,4,4,4,2,2,3,3,2,2,3,2,2,1,3,2,2,1,1,1,1,1,1,1,1,1,4,1,4,1,1,1,1,1,1,1,4,2,4,6,7,4,5,3,5,4,5,2,6,2,4,2,7,4,4,3,5,5,2,3,2,2,5,4,7,4,7,5,1,2,4,6,6,5,5,4,5,5,4,3,4,4,3,1,2,2,2,2,3,2,2,1,2,1,2,1,1,1,2,1,2,2,2,4,2,5,7,4,4,5,2,6,1,4,4,4,2,2,4,4,1,4,3,1,3,4,4,2,1,2,4,4,4,4,4,4,4,2,3,4,2,3,3,3,5,2,1,3,2,2,2,2,1,5,1,1,3,2,2,2,2,4,1,1,1,4,1,1,4
"Portugal",1972,1,2,1,4,2,1,0,0,2,NA,36.5,36.4,36.6,38.716705322266,75,11,8,1,1,3,3,4,2,4,1,3,3,4,3,1,NA,1,NA,2,4,6,3,1,NA,1,NA,NA,NA,NA,NA,NA,NA,NA,NA,NA,2,2,5,4,4,4,3,4,4,4,4,4,5,3,4,4,2,2,2,2,3,2,3,3,4,2,3,4,2,2,2,4,2,4,2,4,2,4,2,4,2,2,2,2,4,2,2,5,2,6,2,5,2,6,5,1,2,2,5,2,2,2,5,2,5,5,2,6,1,2,2,2,1,2,2,5,5,2,2,6,6,2,2,3,3,3,4,3,3,3,3,4,4,6,6,6,6,5,5,2,2,2,3,2,2,2,5,3,2,2,3,5,3,3,3,3,4,4,4,3,4,4,2,4,4,4,2,3,3,3,2,2,4,2,3,4,3,4,4,3,4,3,4,4,3,3,3,3,4,2,2,4,2,4,4,2,2,4,4,3,2,3,3,4,3,2,3,4,4,3,3,4,4,4,4,4,3,4,2
"Poland",1972,2,7,1,3,2,1,6,4,2,NA,36.535,36.79,36.28,53.035797119141,76,-4,9,1,1,3,3,2,2,2,1,5,2,5,5,2,1,2,5,6,1,6,3,1,NA,1,NA,NA,NA,NA,NA,NA,NA,NA,NA,NA,2,3,4,5,4,5,2,3,2,4,4,2,4,2,4,4,4,4,4,4,4,3,2,3,4,3,3,4,4,4,3,3,4,3,4,4,5,4,5,4,5,2,1,2,2,1,5,1,1,2,2,2,2,2,2,1,1,6,2,2,4,2,4,2,2,2,1,2,2,1,2,4,1,2,1,1,2,1,4,3,3,4,2,5,5,5,5,5,5,5,5,5,4,4,3,3,3,4,2,1,2,2,2,1,2,2,2,2,2,2,2,2,1,3,1,4,5,6,3,4,4,4,1,3,2,5,4,5,3,2,3,3,4,1,2,4,5,2,4,3,3,4,3,4,3,5,3,5,5,3,5,5,2,3,2,1,3,4,2,2,2,5,3,4,4,3,1,2,5,5,3,3,3,3,5,3,4,2,4
"Oxford",1972,2,6,2,1,2,1,21,40,2,NA,36.65,36.4,36.9,51.75,74,2.777777778,5,1,3,2,2,4,2,5,NA,4,1,8,5,1,NA,1,NA,3,1,8,1,1,NA,2,"choir",NA,NA,NA,NA,7,NA,NA,NA,NA,3,3,3,5,3,2,4,3,3,3,3,5,5,4,3,2,3,2,2,4,4,3,4,4,2,2,3,3,5,3,5,3,3,3,4,5,2,2,1,1,1,2,2,1,1,1,1,4,4,4,5,4,3,4,5,4,4,4,4,4,4,4,5,5,4,4,3,3,3,2,3,3,3,3,3,3,3,3,3,3,3,3,3,4,4,4,4,4,4,4,4,4,2,2,2,2,2,2,2,2,2,4,3,3,4,3,3,2,4,3,3,2,4,2,3,5,6,3,4,4,1,1,1,1,1,5,5,3,3,3,5,1,1,1,1,1,5,1,5,4,2,4,4,3,3,4,4,4,3,4,3,3,2,2,2,4,4,4,4,4,2,3,4,2,4,3,3,4,4,3,3,4,3,2,4,3,4,2,2
"Oslo",1972,2,7,1,2,2,1,9,0,1,3,36.75,36.8,36.7,NA,53,-2,4,1,4,3,3,2,2,5,NA,6,3,6,3,1,NA,1,NA,3,1,8,1,1,NA,1,NA,NA,NA,NA,NA,NA,NA,NA,NA,NA,2,3,2,4,4,2,3,2,3,3,5,2,4,2,4,3,3,2,2,2,4,3,3,2,5,2,4,2,3,2,3,4,2,4,4,4,4,4,2,2,2,1,1,1,1,4,3,7,6,4,7,7,5,3,6,6,1,7,4,2,2,7,5,6,1,3,3,6,6,3,5,4,4,5,3,2,3,2,4,3,4,5,3,4,4,4,2,2,3,3,4,3,4,2,3,3,2,2,2,3,1,5,2,3,2,3,2,1,1,2,1,1,1,2,1,5,6,4,1,3,3,3,1,4,2,4,2,5,3,3,3,2,4,1,1,4,4,2,4,3,2,3,4,2,4,5,2,4,3,4,4,2,1,1,1,4,3,3,4,2,2,2,2,4,2,2,2,2,4,4,4,4,1,2,5,1,1,3,3
"Poland",1972,2,7,1,3,2,1,29,0,2,NA,36.85,36.8,36.9,52.59309387207,96,NA,9,1,3,2,2,2,2,2,2,8,6,4,4,2,8,2,8,6,1,3,3,1,NA,1,NA,NA,NA,NA,NA,NA,NA,NA,NA,NA,4,5,5,4,5,1,2,5,4,3,5,4,1,2,3,3,4,4,4,4,2,4,4,2,5,5,2,2,2,2,2,2,2,2,2,2,2,2,2,2,2,2,2,2,2,2,3,1,2,1,1,4,2,1,1,2,1,6,2,2,2,1,2,1,2,2,2,6,1,2,2,2,1,1,2,1,6,4,2,6,6,1,2,4,5,4,5,5,5,4,4,4,1,1,1,1,2,2,2,3,2,4,1,2,4,2,2,2,1,2,2,4,2,4,3,5,2,6,3,4,2,3,2,4,1,5,4,3,3,4,2,2,4,4,2,4,4,2,5,5,2,3,2,4,3,3,2,4,4,3,4,3,1,1,1,1,4,4,4,2,2,4,4,4,3,2,2,4,4,2,3,3,4,4,3,2,2,4,2
"Oslo",1973,2,6,2,3,2,2,0,1,2,NA,35.95,36,35.9,59.912704467773,70,-2,4,1,3,3,3,4,2,5,NA,2,2,7,3,1,NA,2,5,1,NA,NA,2,1,NA,1,NA,NA,NA,NA,NA,NA,NA,NA,NA,NA,3,3,5,4,5,5,1,3,4,3,3,4,3,2,3,4,2,2,3,3,3,2,3,3,4,2,2,1,1,1,2,1,1,2,4,4,2,2,1,2,1,1,1,1,1,1,1,6,2,5,3,6,5,2,3,5,5,5,5,6,2,2,3,3,1,2,1,5,1,1,1,1,2,2,5,5,2,1,1,5,5,1,6,3,5,4,5,5,3,2,4,2,6,3,5,5,5,3,3,4,1,4,2,1,4,4,1,1,4,1,2,1,1,1,1,5,7,6,2,3,3,4,4,5,3,5,2,1,4,3,3,5,3,4,3,5,4,2,2,4,4,4,4,3,4,5,5,5,3,4,5,3,1,1,3,3,4,4,4,2,2,4,3,5,2,2,3,4,1,4,5,5,2,2,4,1,3,4,2
"Serbia",1973,2,7,1,4,2,1,0,0,2,NA,36.25,36.1,36.4,44.818603515625,45,10,6,1,4,1,NA,4,4,4,4,8,6,8,8,1,NA,1,NA,3,1,8,3,1,NA,2,"udruzenje terapeuta",NA,NA,NA,NA,3,NA,NA,NA,NA,4,4,4,4,3,4,4,4,3,4,3,3,3,3,3,3,2,1,1,2,3,2,2,3,5,1,3,1,1,1,2,1,2,3,1,2,3,1,1,3,1,1,1,1,1,1,1,2,1,1,3,4,1,1,3,NA,2,NA,5,4,2,1,2,2,2,2,3,5,NA,3,2,4,3,3,NA,3,4,3,3,7,6,3,3,5,5,5,5,4,4,3,4,4,3,4,4,4,5,4,5,1,2,2,3,1,1,3,2,2,3,1,2,2,2,1,1,4,5,3,2,3,3,3,3,3,4,4,2,2,2,2,2,4,3,2,3,3,4,2,4,4,4,4,4,3,4,4,2,2,4,2,3,3,2,2,2,2,4,4,3,4,2,3,2,4,2,2,2,4,3,5,3,3,3,3,2,2,3,4,1
"Oxford",1973,1,6,2,1,2,1,1,0,1,10,36.55,36.5,36.6,51.75,89,-1.666666667,5,1,4,1,NA,4,2,5,NA,8,3,4,4,1,NA,2,8,1,NA,NA,4,2,2,2,"ODAA",NA,NA,NA,NA,1,NA,NA,NA,NA,2,1,4,5,2,2,3,3,2,4,3,2,3,4,3,3,3,3,3,4,4,1,3,2,4,3,3,3,4,3,3,2,4,3,4,4,2,3,3,2,3,2,4,3,2,1,3,3,2,3,2,3,3,3,3,3,1,5,2,5,4,5,3,3,2,3,2,4,3,3,3,4,4,4,3,3,2,2,3,3,4,6,2,3,3,2,4,3,4,5,4,4,6,6,7,6,7,6,6,3,3,2,3,4,4,4,4,4,5,3,2,2,3,4,1,3,3,2,2,2,3,3,3,2,3,4,4,2,3,4,3,2,4,2,4,3,2,3,1,4,2,3,4,4,4,4,3,4,3,4,2,3,2,1,2,3,5,4,4,5,2,2,1,4,3,2,4,4,3,2,2,3,2,4,3,4,2,2,2
"Chile",1973,2,7,2,4,2,1,0,0,1,NA,36.65,36.4,36.9,33.449996948242,68,13,2,1,4,1,NA,2,2,5,NA,4,2,8,4,1,NA,2,6,4,8,3,1,2,2,1,NA,NA,NA,NA,NA,NA,NA,NA,NA,NA,4,3,1,5,4,5,1,5,5,5,1,4,5,1,2,3,3,1,1,1,2,2,2,1,4,2,1,5,4,3,4,3,1,3,1,5,5,5,5,5,4,1,1,1,4,3,5,2,1,1,6,4,7,2,1,2,1,6,1,1,2,1,2,1,1,1,1,5,1,1,1,1,1,2,1,1,2,1,1,7,4,7,2,5,5,5,5,4,4,4,5,4,2,4,3,4,4,4,4,1,1,1,1,1,1,2,2,2,2,1,1,3,2,2,1,4,2,3,1,1,3,3,2,1,5,3,1,2,4,1,1,5,3,1,5,4,1,3,1,3,4,4,1,2,5,5,5,5,5,5,5,5,1,1,2,4,5,5,2,4,2,1,2,2,2,4,4,4,4,2,2,4,2,3,5,5,3,2,2
"Poland",1973,2,4,1,3,2,1,1.5,2.5,2,NA,36.7,36.9,36.5,54.360794067383,80,6,9,1,4,2,2,2,2,4,3,1,NA,3,3,1,NA,2,3,2,1,1,3,2,2,2,"Klub ebookow",NA,NA,NA,NA,2,NA,NA,NA,NA,1,2,3,4,3,2,1,1,2,4,4,3,4,2,3,3,5,5,4,4,2,4,4,2,4,3,2,4,4,4,5,4,2,5,2,4,4,4,4,4,4,1,2,1,1,1,2,1,1,2,2,6,5,2,5,7,2,6,1,1,1,1,5,1,1,2,2,7,2,2,5,2,2,1,2,2,7,6,1,7,7,5,2,5,5,5,5,5,5,2,3,2,4,3,3,3,3,3,3,4,3,1,4,2,4,4,2,4,2,2,2,2,1,1,1,4,7,7,5,4,5,5,1,1,3,5,1,5,5,4,5,5,2,1,4,5,5,4,2,2,2,4,5,4,4,4,4,4,4,3,2,4,1,1,1,1,1,1,1,5,1,1,2,5,2,1,1,2,4,4,3,4,3,2,3,4,2,2,2
"Serbia",1973,2,6,2,1,2,1,0,0,2,NA,36.95,37,36.9,44.818603515625,88,9,6,1,4,1,NA,2,2,5,NA,4,3,6,5,1,NA,1,NA,3,1,8,4,1,NA,1,NA,NA,NA,NA,NA,NA,NA,NA,NA,NA,3,2,3,3,2,2,2,3,3,3,2,2,3,3,4,4,2,3,2,3,3,3,3,4,4,2,3,1,2,1,2,1,1,3,1,3,3,3,2,3,1,1,1,1,2,4,3,4,4,2,5,8,8,5,4,5,8,4,4,5,4,3,8,3,2,2,NA,8,1,2,2,3,NA,NA,NA,NA,3,NA,2,6,7,NA,4,5,5,5,5,5,5,3,5,5,5,5,5,3,6,6,6,2,2,4,2,2,2,2,2,2,2,2,2,1,1,3,2,4,6,6,3,3,2,2,3,5,3,3,1,3,4,2,2,5,4,4,3,3,2,2,4,4,3,4,4,4,4,4,2,2,1,3,3,3,3,4,2,2,4,3,3,2,4,2,2,4,3,2,3,5,4,4,4,4,1,3,1,3,3,3,3
"Chile",1974,2,5,1,3,2,1,0,2,2,0,36.25,35.7,36.8,33.449996948242,81,7,2,1,1,3,3,4,2,4,1,3,3,3,3,1,NA,1,NA,5,8,8,2,1,NA,2,"Jsb","Familia","Spicee girls","Jsb prime","Solo nosotras",3,4,4,2,4,4,5,5,3,4,4,3,4,5,5,5,4,5,2,2,4,2,3,2,3,3,2,2,3,4,2,3,4,4,4,4,3,3,4,5,4,4,4,4,4,5,4,4,3,4,2,4,2,2,1,2,2,6,1,2,3,5,2,4,2,2,2,2,2,2,2,2,7,2,2,2,2,2,2,4,3,5,2,1,6,7,6,4,4,4,4,4,4,4,4,4,5,2,3,2,2,3,2,2,2,1,3,1,2,4,4,1,3,3,1,2,2,1,2,2,4,5,4,4,4,4,4,1,4,1,5,5,4,4,3,3,2,1,2,1,1,4,2,5,1,3,4,5,4,3,5,4,4,4,4,4,4,2,2,3,2,5,5,4,2,1,2,3,1,4,2,1,3,4,2,3,2,4,2,2,3,4,1,2
"Chile",1974,2,6,1,5,2,1,0,1,1,NA,36.5,36.4,36.6,33.449996948242,75,3,2,1,1,3,3,4,2,1,NA,6,3,6,5,1,NA,2,8,1,NA,NA,1,1,NA,1,NA,NA,NA,NA,NA,NA,NA,NA,NA,NA,3,3,3,4,2,4,3,2,4,4,4,2,4,2,2,3,3,3,2,3,2,2,3,2,4,2,2,2,1,1,3,1,1,2,4,2,4,2,1,2,1,1,2,3,3,1,2,2,1,2,1,1,5,2,2,4,5,2,2,4,1,1,6,1,1,1,5,5,3,2,3,1,5,3,5,3,7,3,2,7,7,5,5,5,5,5,5,5,4,4,5,5,3,6,4,4,3,3,3,1,1,1,2,1,1,1,1,1,1,1,2,2,2,1,3,4,4,4,2,2,2,1,1,2,1,5,4,3,1,3,3,4,1,1,2,2,4,1,2,3,3,3,1,5,3,5,4,3,4,3,4,3,1,1,1,1,1,1,2,4,1,3,4,4,3,1,1,3,4,3,3,4,4,3,3,4,4,3,1
"Poland",1974,2,7,1,3,2,1,6,1,2,NA,36.55,36.5,36.6,52.233306884766,78,8,9,1,1,3,3,2,2,4,1,8,3,6,6,2,3,2,8,2,4,1,3,1,NA,2,"?wiczenia",NA,NA,NA,NA,7,NA,NA,NA,NA,5,4,3,5,4,5,1,3,4,5,4,5,5,3,3,4,4,5,5,4,3,3,4,2,5,5,2,1,1,1,1,1,1,1,1,1,4,2,4,2,3,1,1,1,1,1,3,4,4,1,1,6,2,1,1,2,4,4,2,2,2,1,4,1,1,2,1,4,1,2,1,1,1,2,2,1,6,3,1,4,4,2,2,4,5,5,5,5,3,4,4,3,1,2,3,1,2,3,2,2,3,1,3,1,3,2,3,2,1,3,2,3,1,3,2,4,5,4,5,2,1,1,3,3,3,4,3,4,2,4,4,3,2,2,3,3,3,3,2,3,3,5,5,3,3,4,4,5,3,3,3,3,1,1,2,1,1,3,3,2,3,3,4,5,3,2,1,5,3,4,3,3,3,2,4,3,2,3,2
"Oxford",1975,1,6,2,4,2,1,0,6,1,15,35.4,34.9,35.9,51.75,89,-1.666666667,5,1,2,1,NA,4,4,5,NA,1,NA,6,3,1,NA,1,NA,3,2,6,1,1,NA,1,NA,NA,NA,NA,NA,NA,NA,NA,NA,NA,4,2,2,2,1,1,4,2,2,5,4,3,5,4,2,4,4,4,3,4,3,3,2,4,3,2,1,4,4,2,5,2,2,4,4,4,2,2,2,4,2,2,2,2,3,2,2,5,5,3,5,5,3,1,6,5,2,6,3,3,2,3,3,6,1,2,2,5,3,3,2,5,5,3,2,4,2,3,3,4,5,4,2,4,3,4,3,3,2,4,3,2,6,5,5,3,2,5,4,1,1,1,2,2,1,2,2,4,1,1,2,4,3,4,2,4,4,5,4,4,1,2,4,4,4,5,4,2,2,2,2,4,2,2,4,3,3,2,4,4,1,4,5,4,2,2,4,3,2,4,3,2,3,4,3,1,2,2,4,3,4,5,4,4,1,1,4,4,3,1,2,4,4,2,2,4,2,2,1
"Poland",1975,2,2,1,4,2,1,NA,NA,2,NA,36.1,36.3,35.9,52.25,58,-3,9,1,1,3,3,4,1,3,3,1,NA,1,1,1,NA,2,6,6,8,8,1,1,NA,2,"grupa taneczna kizomba",NA,NA,NA,NA,5,NA,NA,NA,NA,3,3,2,3,3,5,2,5,4,4,4,2,2,3,5,4,4,4,4,3,3,3,3,4,2,4,3,2,2,1,2,2,1,1,1,1,4,2,2,2,1,1,2,2,1,2,2,6,5,6,5,7,5,3,2,6,1,2,5,3,6,6,6,4,1,1,2,4,1,1,1,1,3,1,1,1,2,2,1,6,6,2,1,5,5,5,5,5,4,3,4,3,1,2,1,1,1,2,2,3,3,2,3,2,2,2,2,2,2,2,2,2,2,3,3,4,4,5,3,3,3,1,1,5,1,5,4,5,1,1,5,1,1,1,4,2,4,1,5,4,3,4,4,5,4,5,3,5,3,3,4,3,1,4,1,3,2,4,3,2,2,2,3,4,3,2,2,4,4,3,3,3,2,3,4,4,3,4,4
"Chile",1975,2,4,2,2,2,1,0,0,2,0,36.1,36.1,36.1,33.426280975342,62,11,2,1,3,2,2,4,4,5,NA,7,4,8,5,1,NA,1,NA,4,1,3,2,1,NA,2,"fundaci¨®n",NA,NA,NA,NA,4,NA,NA,NA,NA,4,2,2,3,3,4,2,1,4,2,4,2,5,2,2,3,1,1,2,4,4,2,3,2,3,3,3,4,4,4,4,2,1,3,1,3,4,4,4,4,1,1,4,2,4,1,4,6,3,6,6,5,6,2,7,5,6,3,5,5,5,6,6,7,2,5,6,7,1,6,4,5,5,3,3,5,5,3,5,7,2,1,3,5,5,5,5,3,4,2,4,4,6,5,5,4,5,5,5,2,2,5,3,2,3,4,3,2,1,3,4,1,1,2,4,5,7,5,5,6,6,6,1,1,2,4,2,4,2,2,4,5,4,2,4,4,3,2,2,3,4,3,5,4,5,5,5,4,3,4,3,2,2,4,4,4,2,3,2,5,2,2,2,2,4,4,2,5,5,4,5,5,2,4,4,5,3,5,5
"METU",1975,2,7,2,2,2,1,NA,0,2,NA,36.15,35.7,36.6,39.923004150391,66,5,3,2,2,1,NA,4,4,5,NA,4,3,3,3,1,NA,1,NA,3,8,8,2,1,NA,1,NA,NA,NA,NA,NA,NA,NA,NA,NA,NA,2,5,5,5,5,5,5,4,4,4,5,3,5,4,4,4,3,3,3,3,4,4,3,4,4,2,3,4,3,2,4,4,3,2,4,4,3,4,3,3,4,2,2,3,3,3,3,6,2,6,5,7,7,5,7,6,5,6,2,6,2,5,6,2,1,5,6,3,6,6,2,5,6,5,2,1,3,1,5,3,3,6,6,5,3,3,4,5,5,4,5,5,4,4,3,4,4,4,4,2,2,2,2,1,4,1,1,1,1,2,1,1,3,1,2,5,6,6,5,5,5,5,5,1,3,5,1,3,2,4,2,5,5,1,2,5,5,2,2,4,3,4,2,4,5,5,1,5,4,5,5,4,1,1,1,1,2,4,4,1,1,4,3,3,2,2,1,4,2,5,5,4,1,5,5,1,2,1,4
"Poland",1975,2,5,1,4,2,1,1,0,2,NA,36.25,36.6,35.9,53.416702270508,75,-1,9,1,1,2,2,4,4,4,4,8,6,6,6,2,1,2,4,6,2,8,2,1,NA,2,"ZNP",NA,NA,NA,NA,5,NA,NA,NA,NA,3,3,4,4,3,3,2,4,2,4,4,3,3,3,3,3,4,4,4,4,2,4,4,3,4,4,2,2,3,2,4,2,1,2,3,2,3,2,4,2,3,2,2,1,2,2,3,1,1,1,1,4,2,1,1,2,2,7,2,2,2,1,5,2,1,2,3,4,1,1,2,1,2,1,3,2,3,3,1,5,5,1,3,4,4,4,4,5,4,3,4,4,1,2,2,1,2,2,2,2,2,1,2,2,2,2,2,2,2,1,3,4,2,2,3,2,2,4,2,2,2,2,2,4,3,4,3,2,2,3,2,4,3,2,4,3,3,4,2,2,3,5,2,2,4,4,3,3,3,3,4,4,2,2,2,1,2,3,3,2,3,3,3,4,4,2,2,4,3,2,3,4,3,4,3,3,3,4,2
"VCU",1975,1,7,1,2,2,1,14,0,2,NA,36.25,36.27777778,36.22222222,37.444900512695,91,14.44444444,5,1,1,1,NA,4,2,2,1,5,4,2,2,1,NA,2,1,3,8,6,1,1,NA,1,NA,NA,NA,NA,NA,NA,NA,NA,NA,NA,2,2,2,3,2,2,1,2,3,3,5,2,5,3,4,3,2,3,2,4,3,3,2,3,5,4,3,3,4,2,4,2,2,4,4,4,4,4,3,4,3,2,2,2,2,2,4,2,2,3,2,2,1,2,5,2,2,1,1,4,1,5,2,2,2,5,4,7,4,6,4,5,3,3,3,3,3,2,4,4,7,2,2,4,4,5,5,3,4,4,4,4,5,6,6,5,4,3,4,2,2,1,2,1,2,2,2,5,3,3,1,2,2,2,2,2,4,1,3,2,2,2,4,4,5,4,1,2,3,2,2,5,4,2,5,5,5,3,2,4,1,1,5,5,2,3,4,4,3,3,4,4,2,2,3,2,4,5,5,2,1,4,5,2,4,1,4,3,4,2,4,2,4,3,2,4,3,2,1
"Poland",1975,2,7,1,3,2,1,4,4,2,NA,36.35,37,35.7,52.25,70,1,9,1,1,3,3,4,2,4,4,3,3,5,5,1,NA,2,8,2,1,1,1,2,7,1,NA,NA,NA,NA,NA,NA,NA,NA,NA,NA,4,3,2,5,5,5,1,3,2,2,2,4,4,3,4,4,4,4,4,3,4,2,3,4,4,4,3,4,2,1,1,2,1,2,1,1,4,3,4,4,4,1,1,1,2,1,4,4,2,2,2,4,3,2,5,2,2,6,4,4,1,1,6,7,5,5,2,2,2,7,5,5,6,6,5,2,5,6,5,4,6,2,2,5,5,5,5,5,5,5,5,5,4,4,4,4,4,3,3,4,2,2,2,4,3,4,2,2,2,4,3,1,1,3,2,5,7,7,6,6,6,6,5,5,3,5,2,2,2,2,4,5,5,1,4,5,4,3,4,2,4,4,4,4,2,4,4,4,2,3,4,2,1,4,3,2,2,4,2,2,2,3,3,4,3,2,3,5,5,4,3,4,4,2,4,4,4,4,4
"Poland",1975,2,7,1,3,2,1,3,0,2,NA,36.35,36.2,36.5,52.59309387207,69,NA,9,1,1,4,4,3,1,2,1,8,6,8,7,2,5,2,8,2,1,1,2,1,NA,1,NA,NA,NA,NA,NA,NA,NA,NA,NA,NA,4,3,3,3,4,5,3,4,4,4,5,4,4,3,3,3,4,4,4,4,3,3,4,3,4,4,3,2,4,2,3,2,2,3,2,2,4,4,4,3,4,2,2,2,2,3,4,1,1,1,3,5,5,1,1,1,1,7,1,1,1,2,6,4,1,2,2,2,1,2,2,1,2,1,2,1,3,2,2,3,2,2,2,5,5,4,5,5,5,5,4,5,4,6,6,5,6,5,6,2,2,2,2,2,2,4,2,2,2,2,3,2,1,2,2,5,7,6,5,6,7,5,1,4,1,4,4,5,2,2,4,3,2,1,1,2,4,2,4,4,3,4,4,4,4,3,3,5,2,4,4,2,1,5,2,2,2,3,3,2,2,4,2,4,2,2,2,4,4,4,4,5,1,4,4,4,4,3,4
"Chile",1975,2,7,1,3,2,1,2,1,1,NA,36.35,36.5,36.2,33.449996948242,71,12,2,1,1,2,2,4,4,4,2,3,2,5,5,1,NA,1,NA,5,8,8,3,2,3,2,"Apoyo a un hogar",NA,NA,NA,NA,1,NA,NA,NA,NA,4,3,3,3,3,2,4,4,3,4,4,2,4,3,4,3,3,2,2,3,5,2,3,3,3,2,2,3,3,1,4,3,3,3,2,4,5,4,4,2,5,1,1,1,4,1,4,5,5,3,3,6,7,2,5,6,2,3,1,5,2,2,6,5,3,5,1,6,1,1,2,3,1,2,2,2,2,1,6,7,6,3,2,5,5,5,5,5,3,4,4,3,7,5,5,4,5,5,4,3,4,1,4,4,4,4,4,4,3,2,1,2,1,4,1,5,7,6,7,6,6,7,4,1,4,4,4,4,2,2,4,5,2,1,3,4,2,3,2,5,2,3,4,4,4,5,3,5,5,3,5,5,1,2,2,4,4,5,5,2,1,4,2,4,4,2,3,5,4,4,3,5,5,5,4,5,2,3,4
"Poland",1975,2,6,1,4,2,1,4,0,2,NA,36.45,36.5,36.4,52.233306884766,72,6,9,1,1,4,4,4,2,4,1,8,6,4,4,2,1,2,5,6,1,3,1,1,NA,1,NA,NA,NA,NA,NA,NA,NA,NA,NA,NA,4,4,3,5,5,2,3,3,3,4,4,4,5,2,3,3,4,4,4,4,3,3,4,2,4,4,2,4,4,2,4,2,2,2,3,2,4,2,4,3,4,2,2,1,3,1,4,2,1,1,2,4,2,1,1,2,1,7,1,2,2,1,6,5,1,2,5,5,1,2,1,2,2,2,2,3,3,2,2,7,7,2,1,5,5,4,5,5,5,5,5,5,3,3,3,3,5,4,4,1,2,1,2,1,1,2,1,1,1,1,3,1,1,2,2,3,4,6,6,6,6,6,1,4,2,5,1,3,2,2,2,4,1,1,2,4,4,3,3,2,2,5,1,3,4,4,3,4,3,4,4,3,1,3,1,1,2,4,2,4,3,2,4,2,4,3,2,4,4,3,4,4,2,3,4,3,3,3,4
"Poland",1975,1,7,1,4,2,1,6,4,2,NA,36.5,36.5,36.5,52.25,68,0,9,1,1,1,NA,4,4,4,4,8,5,7,8,1,NA,2,8,3,3,3,2,2,8,2,NA,NA,NA,NA,NA,NA,NA,NA,NA,NA,2,4,4,4,4,2,4,4,4,4,4,4,4,2,2,2,2,2,2,2,2,2,2,2,2,2,2,2,2,2,2,2,2,2,2,2,2,2,2,2,2,2,2,2,2,2,2,2,2,2,2,2,2,4,2,2,2,6,2,2,2,2,4,2,2,2,3,2,6,2,2,2,2,3,3,5,3,3,2,3,6,3,3,4,4,4,4,4,4,4,4,4,1,2,1,1,2,2,1,1,2,2,2,2,2,2,2,2,2,2,4,2,2,2,5,3,2,2,2,2,2,1,3,3,3,3,3,3,3,3,4,4,3,3,3,3,3,3,1,2,3,4,3,2,4,4,3,4,4,3,3,3,3,3,3,2,2,4,2,2,3,2,2,4,3,2,4,3,3,3,3,3,3,3,3,3,2,2,2
"Bamberg",1975,2,7,1,3,2,1,10,0,2,NA,36.55,36.5,36.6,53.550003051758,73,1,1,1,1,1,NA,4,1,4,1,3,3,3,3,2,1,1,NA,3,1,8,2,1,NA,1,NA,NA,NA,NA,NA,NA,NA,NA,NA,NA,3,2,5,3,2,4,3,4,3,4,3,2,1,2,4,3,2,3,2,3,2,3,2,5,3,3,2,1,4,1,4,2,1,1,1,1,2,2,2,1,1,1,1,1,1,1,2,1,1,1,1,1,2,1,1,1,1,2,2,1,1,1,1,2,1,2,1,6,2,2,1,1,1,1,1,2,1,2,1,4,2,1,2,5,5,5,5,5,5,4,4,3,2,2,3,2,2,2,3,3,2,4,2,1,3,4,2,1,2,5,1,1,2,3,2,5,7,6,6,6,4,3,1,4,2,5,5,5,3,2,5,1,3,2,1,1,3,1,5,3,2,4,4,3,2,4,3,4,1,2,3,1,1,4,1,3,3,4,3,2,2,2,2,4,2,2,1,3,4,2,2,3,2,3,3,2,2,2,3
"Poland",1975,2,4,1,1,2,1,6,0,2,NA,36.625,36.74,36.51,52.233306884766,84,2,9,1,1,1,NA,4,4,1,1,8,6,8,8,2,5,2,8,6,1,3,1,1,NA,1,NA,NA,NA,NA,NA,NA,NA,NA,NA,NA,4,2,2,2,2,4,2,4,2,2,4,2,2,2,3,3,3,3,3,2,3,3,4,3,3,3,3,5,5,4,4,4,4,4,3,4,4,4,4,4,4,4,4,4,4,4,4,5,6,1,5,7,6,5,6,2,1,7,6,6,1,1,6,4,2,6,2,1,3,4,1,1,2,2,2,2,6,2,2,2,6,3,2,4,4,4,4,4,4,4,4,4,2,5,4,4,4,4,4,3,4,4,2,4,4,4,4,4,1,1,2,4,1,4,2,4,7,4,3,3,3,3,1,1,1,5,1,4,4,4,2,1,1,1,1,3,2,2,2,1,2,5,2,3,4,5,5,5,5,4,5,4,2,2,1,2,4,2,2,2,2,4,4,4,4,4,1,5,5,5,5,5,1,4,4,4,5,5,5
"Poland",1975,2,7,1,4,2,1,18,4,2,NA,36.9,36.8,37,52.25,68,0,9,1,1,1,NA,4,4,4,4,3,1,4,4,2,5,2,8,3,7,8,1,1,NA,1,NA,NA,NA,NA,NA,NA,NA,NA,NA,NA,2,2,3,3,4,1,1,3,2,2,5,4,5,3,4,4,5,4,5,4,2,4,4,4,5,5,3,5,4,5,5,2,2,4,2,5,5,3,5,3,5,2,2,5,5,1,4,7,1,1,1,7,2,1,1,2,1,4,1,2,1,1,2,3,1,1,1,1,1,1,1,1,1,1,1,1,1,1,1,2,1,1,1,5,5,5,5,5,5,5,5,5,7,7,7,6,6,7,7,1,2,1,2,1,1,3,1,1,1,4,3,2,1,2,1,4,5,5,5,4,5,5,5,5,2,5,5,4,4,2,5,1,1,5,2,2,5,2,2,2,2,4,1,3,5,5,3,5,5,3,5,5,1,1,1,5,3,4,3,1,4,2,4,4,2,2,1,5,5,5,3,2,2,2,4,2,3,3,4
"Poland",1975,2,6,1,4,2,1,4,2,1,3,36.95,36.9,37,53.416702270508,67,1,9,1,1,3,3,4,1,3,3,3,2,3,2,1,NA,2,4,3,1,8,2,2,8,1,NA,NA,NA,NA,NA,NA,NA,NA,NA,NA,3,4,5,4,5,5,3,3,4,3,5,5,5,2,2,3,4,5,5,4,1,4,4,2,4,5,1,1,1,1,2,1,1,1,2,1,3,1,2,2,2,1,1,1,1,1,2,1,1,1,1,1,1,1,1,1,1,7,1,1,1,1,1,1,1,4,4,7,4,3,4,5,4,4,3,2,5,4,3,7,7,2,2,5,5,5,5,5,3,3,3,3,3,5,5,5,4,4,4,1,1,1,1,1,1,1,1,1,1,1,2,2,1,2,2,4,3,5,2,3,2,2,1,5,2,4,1,2,1,1,1,5,3,1,5,3,4,4,2,3,1,3,4,4,4,3,2,4,1,4,4,1,2,4,3,2,1,4,2,3,3,1,1,5,2,1,1,4,4,4,2,3,3,2,4,3,2,4,2
"Serbia",1975,2,6,2,4,2,1,5,0,2,NA,36.95,37,36.9,51,88,9,6,1,2,1,NA,2,2,5,NA,2,2,6,5,1,NA,1,NA,3,1,8,2,1,NA,2,"Sportska sekcija",NA,NA,NA,NA,5,NA,NA,NA,NA,3,1,3,2,2,2,2,3,1,3,4,1,3,3,4,5,3,3,4,3,2,3,3,4,4,2,4,2,3,3,3,1,1,4,1,5,2,4,2,3,2,2,3,4,2,3,2,4,2,2,3,5,2,2,2,3,2,NA,4,8,3,8,2,5,4,2,1,4,1,5,2,5,NA,NA,NA,NA,4,3,5,4,5,1,3,4,4,3,5,5,3,2,4,3,5,4,5,5,6,5,6,4,5,3,5,4,4,5,5,4,5,3,4,5,2,3,1,4,5,3,3,3,3,3,1,3,2,5,4,5,2,2,4,4,3,3,4,4,3,2,4,5,5,5,5,1,4,3,1,1,1,2,4,4,2,1,2,3,3,3,3,3,3,1,2,1,2,2,1,4,4,3,5,5,3,5,4,3,3,2,4
"Oxford",1975,2,7,1,4,2,1,0,0,2,NA,36.95,37,36.9,51.75,74,2.777777778,5,1,1,1,NA,4,4,3,3,8,6,8,4,2,4,1,NA,3,1,6,3,1,NA,2,"coffee social group","debating group, talks",NA,NA,NA,5,2,NA,NA,NA,4,3,3,3,4,3,2,3,3,3,4,4,3,3,3,3,2,2,2,2,3,3,2,3,4,2,3,3,4,3,5,3,3,3,3,4,4,3,4,3,4,2,2,3,3,3,4,1,1,1,1,1,2,1,2,1,1,2,1,2,2,2,1,4,1,3,2,2,2,2,2,2,2,2,1,1,1,1,2,2,2,2,2,5,5,5,5,5,5,4,4,5,5,3,3,3,3,4,4,2,2,2,3,2,2,2,2,2,2,2,3,2,2,3,2,5,5,3,2,3,2,2,3,3,4,4,4,2,2,2,2,4,2,2,3,4,4,2,3,4,2,2,3,3,4,4,3,5,5,4,4,3,2,2,2,2,4,3,3,3,2,3,3,2,2,2,2,4,4,3,3,3,3,2,2,3,3,3,3
"Oxford",1976,1,3,2,5,2,1,4,0,2,NA,35.75,35.6,35.9,51.75,74,2.777777778,5,1,2,1,NA,2,2,5,NA,8,5,8,8,1,NA,1,NA,3,8,8,3,1,NA,1,NA,NA,NA,NA,NA,NA,NA,NA,NA,NA,4,3,5,5,2,2,2,2,3,4,5,2,5,2,3,2,2,2,2,2,2,2,2,2,4,2,2,4,4,4,4,4,3,4,3,4,4,4,4,4,4,4,4,4,4,4,4,4,5,4,4,5,4,5,6,4,4,4,4,4,3,4,4,5,4,3,2,4,2,3,3,3,2,4,2,2,3,2,3,2,2,2,3,5,5,5,5,5,3,4,4,4,3,7,7,7,7,7,7,2,3,1,2,3,3,3,2,4,3,1,2,4,1,3,2,3,3,6,3,3,3,3,1,1,4,4,5,3,4,5,3,1,2,2,3,3,3,3,2,4,4,4,4,2,4,4,3,4,4,4,4,4,3,3,3,3,4,4,2,4,4,2,2,2,2,4,3,4,4,4,4,4,3,4,4,4,4,4,3
"Bamberg",1976,2,6,1,5,2,1,8,0,1,10,36.1,36.1,36.1,51,69,-1,1,1,1,3,3,4,4,4,2,4,3,3,2,2,1,1,NA,3,2,8,3,1,NA,1,NA,NA,NA,NA,NA,NA,NA,NA,NA,NA,4,3,4,5,3,5,4,4,4,5,5,5,3,2,2,3,2,2,1,2,2,2,1,3,3,3,2,1,3,1,2,1,1,1,1,2,2,1,1,1,1,1,1,1,1,1,1,2,1,1,1,5,1,2,1,2,1,2,1,1,1,1,1,1,1,1,1,1,1,1,1,1,1,1,1,1,1,6,1,4,6,1,2,5,5,4,5,3,5,3,4,3,3,3,2,2,3,2,2,1,1,1,2,2,1,2,1,2,1,2,3,3,3,3,3,4,6,5,1,5,5,5,3,3,3,5,3,2,1,2,2,4,1,1,3,4,3,2,3,2,4,5,5,2,3,5,5,4,4,3,3,3,1,1,2,1,1,4,2,3,2,2,2,4,2,1,1,5,5,4,4,2,1,2,3,2,2,1,1
"Poland",1976,2,7,1,4,2,1,11,17,2,NA,36.2,36.4,36,52.59309387207,77,NA,9,1,1,3,3,4,4,4,4,7,4,5,5,2,1,2,8,3,3,3,2,1,NA,2,"handlowa","sportowa",NA,NA,NA,3,4,NA,NA,NA,4,4,4,4,5,4,4,4,4,4,4,4,4,3,2,3,4,4,4,4,2,4,4,3,3,5,3,2,2,2,2,2,2,2,2,3,4,2,4,2,4,2,2,2,2,2,3,2,2,2,2,4,4,2,2,2,4,6,4,2,2,2,4,4,2,2,2,4,2,2,2,2,2,2,2,4,2,4,2,4,4,2,3,5,5,4,5,5,5,5,5,5,5,5,5,5,5,5,5,2,2,2,2,2,3,2,2,2,2,2,3,2,2,2,2,3,4,4,4,4,4,4,3,3,3,4,3,2,2,2,2,3,3,2,3,3,3,3,2,2,3,4,3,3,4,4,4,3,4,4,3,3,3,3,4,2,2,4,2,4,4,2,2,4,2,2,3,3,2,2,3,3,3,3,3,3,2,4,2
"Oxford",1976,1,1,2,4,2,1,0,0,1,15,36.25,35.5,37,51.75,74,2.777777778,5,1,2,1,NA,3,1,5,NA,1,NA,4,4,1,NA,1,NA,1,NA,NA,3,1,NA,1,NA,NA,NA,NA,NA,NA,NA,NA,NA,NA,1,2,1,1,2,1,2,1,2,3,2,2,3,3,2,2,3,4,3,3,3,2,4,1,2,2,4,1,2,2,1,2,1,4,1,1,1,1,1,2,2,1,4,4,1,2,1,3,2,5,5,5,2,5,1,5,2,7,4,5,2,2,2,2,2,2,6,6,2,4,2,2,4,2,5,6,6,4,2,5,6,2,5,5,4,5,5,4,4,5,4,4,2,2,2,2,2,2,2,1,2,2,2,4,2,3,2,3,2,4,3,5,3,3,4,3,2,1,2,2,1,1,2,3,3,4,4,4,1,2,4,3,2,2,2,2,4,1,5,2,1,2,5,5,2,4,4,4,1,2,2,1,2,5,3,2,4,4,4,3,3,4,4,4,1,1,1,2,5,2,3,2,4,2,3,3,4,1,1
"Poland",1976,2,7,1,3,2,1,9,7,1,10,36.3,36.3,36.3,52.25,56,1,9,1,2,1,NA,2,2,5,1,5,4,6,4,2,4,2,6,3,3,5,1,2,3,1,NA,NA,NA,NA,NA,NA,NA,NA,NA,NA,4,2,4,4,5,3,2,3,4,3,5,4,5,3,3,4,4,4,2,3,3,4,4,4,4,4,3,2,4,2,3,2,3,2,2,2,4,3,3,3,3,1,2,2,2,4,3,2,4,4,5,5,4,3,2,4,1,4,3,5,3,2,5,4,1,2,2,5,1,2,2,2,2,4,2,3,3,3,2,6,6,5,3,4,3,4,3,3,4,4,4,4,3,4,5,3,4,3,3,2,3,2,3,3,2,3,2,3,2,3,2,1,1,4,1,3,3,5,2,2,3,2,1,3,2,5,4,4,3,3,4,3,2,1,2,2,4,3,4,4,3,4,4,3,4,5,3,5,3,2,4,3,1,3,1,2,2,2,2,3,3,2,3,4,3,3,2,2,4,3,4,4,3,2,4,3,3,2,3
"METU",1976,2,7,1,4,2,1,NA,NA,2,NA,36.35,35.9,36.8,NA,55,0,3,2,1,3,8,4,4,1,NA,5,3,3,3,1,NA,1,NA,3,8,8,1,1,NA,1,NA,NA,NA,NA,NA,NA,NA,NA,NA,NA,5,5,5,5,4,5,5,4,5,5,5,5,5,2,3,3,2,3,2,2,3,3,2,3,3,2,3,4,4,3,4,4,2,2,2,3,4,4,4,3,4,2,3,3,3,3,4,6,2,2,2,6,2,2,2,6,2,4,2,2,2,2,6,2,2,2,2,2,2,2,2,2,2,2,2,2,2,2,2,2,2,2,2,5,5,5,5,5,4,4,5,5,1,2,2,2,2,2,2,1,1,1,1,1,2,1,2,2,1,2,2,2,4,4,4,5,7,4,1,3,2,2,2,2,4,5,4,4,2,2,4,4,3,2,2,2,2,3,3,4,2,2,4,4,2,2,2,4,4,3,4,4,2,2,2,2,3,4,5,1,2,1,5,2,4,2,2,4,3,2,2,4,3,4,2,3,3,4,3
"Kassel",1976,2,7,1,2,2,1,15,0,2,NA,36.5,36.4,36.6,51.287796020508,73,-4,1,1,1,3,2,4,4,4,1,3,2,4,3,2,1,2,3,3,1,5,2,2,3,2,"Handel","0","0","0","0",2,0,0,0,0,3,3,3,4,2,3,3,2,2,3,3,3,3,3,2,4,3,4,3,3,3,3,3,3,3,2,3,1,2,1,2,1,1,1,1,3,3,1,2,1,1,1,1,1,1,2,2,2,2,2,4,2,2,2,2,2,2,6,2,4,2,2,2,2,2,2,2,4,2,2,4,2,2,6,2,6,2,2,2,6,6,2,4,4,4,3,4,4,4,3,4,4,5,5,5,5,5,5,5,3,4,3,3,4,4,4,4,2,3,4,2,2,2,3,2,5,6,5,3,3,3,3,3,4,4,3,2,2,3,3,3,4,3,3,3,4,3,3,3,4,4,4,4,4,4,4,4,4,2,3,3,3,2,4,3,2,2,4,2,4,3,2,2,2,2,2,2,4,4,2,2,4,2,2,3,4,3,3,4
"Bamberg",1976,1,6,1,4,2,1,3,0,2,NA,36.55,36.6,36.5,53.550003051758,91,4,1,1,1,1,NA,4,2,4,4,3,1,6,4,1,NA,1,NA,3,1,8,2,2,4,2,"Sport",NA,NA,NA,NA,1,NA,NA,NA,NA,3,2,3,3,2,3,2,3,2,3,2,3,2,4,4,3,3,3,3,2,3,4,3,4,5,2,4,2,2,2,4,2,3,3,2,4,5,5,4,5,4,2,4,2,4,2,5,5,4,3,5,6,4,2,6,2,2,3,6,4,6,5,2,6,1,2,1,3,1,2,2,5,3,3,1,2,2,2,2,3,3,3,1,5,4,4,4,5,5,4,4,4,3,5,6,4,5,5,5,2,3,2,4,2,3,2,4,2,2,1,2,4,2,1,2,4,4,5,3,4,3,5,3,2,4,5,2,2,4,2,4,4,3,4,2,4,2,2,2,4,4,5,2,2,3,5,5,4,3,4,4,2,1,2,2,2,5,4,4,2,3,4,2,4,4,3,2,5,5,3,3,4,1,3,5,3,4,2,2
"Poland",1976,2,6,1,3,2,1,NA,3,2,NA,36.65,36.5,36.8,52.25,68,0,9,1,1,1,NA,4,4,2,2,8,4,8,6,1,NA,2,8,6,1,2,2,1,NA,1,NA,NA,NA,NA,NA,NA,NA,NA,NA,NA,3,3,2,3,2,3,2,3,3,3,3,3,2,3,4,3,4,3,3,3,3,3,3,3,3,3,3,2,2,2,3,2,3,3,2,2,2,1,2,2,2,1,1,1,1,1,3,2,2,2,1,2,2,2,2,2,2,6,2,2,2,1,6,2,2,2,2,3,2,2,2,2,2,2,2,2,4,3,2,5,4,2,2,5,5,4,4,4,3,3,4,4,3,3,2,2,3,3,3,2,3,1,3,2,2,3,2,2,2,3,4,2,1,3,2,5,5,5,3,5,6,6,2,4,4,2,1,3,4,4,3,5,5,3,4,5,3,4,2,4,3,4,3,3,3,4,4,4,4,4,4,4,2,2,2,2,2,3,2,2,3,3,2,2,4,4,2,4,4,4,4,4,2,4,4,4,3,2,2
"Poland",1976,2,7,1,5,2,1,5,0,2,NA,36.7,36.6,36.8,52.25,72,2,9,1,4,1,NA,4,2,5,1,4,4,6,6,2,1,2,8,6,4,8,1,1,NA,1,NA,NA,NA,NA,NA,NA,NA,NA,NA,NA,2,4,4,4,5,3,4,4,3,5,3,4,4,2,3,3,4,5,4,3,2,4,4,4,3,4,3,1,3,1,3,4,4,4,1,3,4,3,4,4,4,1,3,2,4,1,4,3,4,1,4,1,6,5,2,4,1,6,1,4,3,1,6,1,1,3,2,5,2,2,2,2,2,4,2,4,2,4,1,7,6,4,2,4,4,4,4,4,4,4,4,4,4,5,5,3,5,2,3,2,1,1,1,1,3,3,1,3,1,2,4,1,1,3,2,4,3,6,6,6,6,1,1,3,4,4,3,4,3,3,3,4,4,1,3,3,3,3,1,3,4,4,3,4,5,5,4,5,4,3,5,3,1,1,2,1,3,4,1,1,1,2,3,5,3,3,1,3,4,4,4,4,1,4,4,3,3,3,1
"Bamberg",1977,2,4,1,4,2,1,3,0,1,15,35.1,35.1,35.1,50.533294677734,79,-2,1,1,1,4,4,4,4,4,2,2,2,5,5,1,NA,1,NA,2,2,6,6,2,8,2,"Sportverein",NA,NA,NA,NA,4,NA,NA,NA,NA,1,1,5,5,4,4,3,4,4,2,4,4,5,4,2,3,1,1,3,4,4,2,3,3,3,4,4,2,4,2,4,1,1,2,1,4,5,4,3,3,2,1,2,2,2,1,2,6,2,6,3,3,3,3,6,5,6,5,2,6,2,7,5,6,2,7,6,7,3,2,2,2,5,5,6,2,6,7,3,7,6,2,6,4,4,3,4,5,4,5,5,2,3,5,4,2,3,2,3,2,4,5,4,2,2,4,5,4,2,2,2,2,2,4,2,5,7,3,2,5,7,4,4,5,4,3,2,2,4,2,2,5,4,2,3,4,3,2,2,4,2,5,4,5,2,3,4,3,4,3,1,4,2,2,3,4,1,4,3,1,2,4,3,3,2,2,3,3,5,2,2,4,1,3,4,4,2,2,5
"Poland",1977,2,7,1,4,2,1,5,0,2,NA,36.4,36.5,36.3,52.25,68,0,9,1,1,2,2,4,4,4,4,8,6,4,4,1,NA,2,8,3,2,2,3,1,NA,2,"Ko?o muzyczne",NA,NA,NA,NA,6,NA,NA,NA,NA,3,5,5,4,5,5,5,5,3,5,5,5,4,4,2,2,5,5,5,5,2,3,5,1,4,5,1,1,1,1,1,1,1,1,1,1,1,1,1,1,1,1,1,1,1,1,1,2,1,1,1,1,5,1,1,7,1,7,1,1,1,1,1,1,1,1,1,3,1,1,1,1,1,1,2,1,7,1,1,3,4,1,1,5,5,5,5,5,5,4,5,4,1,3,3,2,2,2,2,2,2,2,2,2,2,4,2,3,2,2,2,2,2,2,2,3,4,5,3,3,2,3,2,5,2,5,1,5,5,5,3,2,2,3,1,1,3,2,3,2,3,4,4,4,4,4,4,5,5,3,5,5,1,1,2,1,1,4,2,4,2,3,4,4,3,2,4,4,4,4,4,3,2,5,4,3,4,3,3
"Poland",1977,1,7,1,3,2,1,3,0,2,NA,36.4,36.3,36.5,52.416702270508,74,-5,9,1,1,3,3,4,4,2,2,8,6,6,5,2,8,2,8,6,4,7,1,1,NA,2,"1","2","3","4","5",7,5,4,7,4,4,3,3,5,4,4,2,3,2,5,4,3,4,3,4,3,3,4,2,3,2,4,4,3,4,4,3,3,1,1,3,2,2,2,2,2,3,2,2,2,1,1,1,1,1,2,2,2,1,1,1,7,3,2,2,1,2,6,6,2,2,1,6,2,1,2,1,2,2,1,1,1,1,2,1,1,4,2,1,4,4,5,3,4,4,5,5,5,5,5,5,5,2,3,3,2,2,2,2,1,2,2,1,2,3,2,1,2,1,2,3,2,1,2,1,5,7,6,4,4,2,4,3,3,2,4,2,2,4,3,3,4,4,4,4,4,2,4,2,2,4,4,3,4,3,5,5,5,4,4,5,4,2,2,2,2,3,2,3,2,2,2,3,2,4,2,3,4,4,4,4,4,2,4,4,4,4,2,4
"Serbia",1977,2,5,1,3,2,1,0,0,2,NA,36.9,36.9,36.9,44.818603515625,53,6,6,1,1,1,NA,4,4,2,1,3,3,4,2,1,NA,1,NA,3,1,8,1,1,NA,1,NA,NA,NA,NA,NA,NA,NA,NA,NA,NA,4,4,3,5,5,4,4,2,4,4,3,5,4,3,3,4,2,2,2,3,3,2,2,3,4,2,2,4,4,3,3,3,2,4,2,4,4,4,4,4,2,3,3,4,4,3,3,1,1,1,1,1,2,2,1,1,1,NA,1,1,1,1,1,1,1,1,1,7,1,1,2,1,5,NA,1,1,NA,1,4,7,6,NA,1,5,5,5,5,5,5,5,5,5,5,5,3,3,5,5,5,2,2,1,2,2,1,2,2,2,1,2,4,2,2,3,2,4,4,3,1,4,4,4,4,2,4,4,3,5,2,2,5,4,2,2,2,2,4,2,4,4,3,4,4,4,4,4,1,1,4,2,2,2,2,3,2,2,4,4,4,4,2,1,2,4,3,2,1,4,4,3,3,4,2,3,5,3,4,4,2
"Portugal",1978,1,5,1,3,2,1,0,0,1,15,35.95,36.1,35.8,38.800994873047,75,11,8,1,1,2,3,2,2,2,1,4,4,3,3,1,NA,1,NA,3,8,8,5,1,NA,2,"politica","politica","sindical",NA,NA,7,7,7,NA,NA,4,2,2,3,2,5,2,2,2,1,5,3,2,2,3,3,3,2,1,2,2,2,2,3,4,4,2,4,4,4,4,3,2,2,3,4,2,2,2,2,2,2,2,2,2,4,2,2,2,2,3,1,6,2,2,3,2,1,1,2,2,1,2,2,2,2,1,7,1,2,2,2,2,1,1,1,7,1,1,1,6,1,5,3,4,4,5,5,2,2,3,3,2,2,2,1,2,2,1,2,5,1,1,2,2,2,2,2,2,1,3,1,2,3,3,4,3,6,2,2,2,2,2,4,4,3,2,2,2,2,5,5,1,2,4,4,3,4,4,3,4,3,3,3,3,2,2,2,1,4,4,2,3,2,4,1,2,5,4,2,2,2,2,3,2,3,1,4,4,5,4,4,5,5,4,3,3,2,1
"Serbia",1978,1,6,1,4,2,1,21,0,1,5,36,35.9,36.1,44.818603515625,95,11,6,1,1,2,2,4,4,3,3,6,4,7,7,1,NA,1,NA,3,1,8,4,2,6,1,NA,NA,NA,NA,NA,NA,NA,NA,NA,NA,4,4,5,4,4,3,4,3,4,4,3,2,4,2,3,3,2,2,2,2,3,2,2,3,4,2,3,3,4,2,4,1,2,5,1,4,2,4,1,3,1,1,2,2,3,1,1,2,1,2,2,4,2,2,2,NA,1,NA,1,5,2,1,1,1,1,5,NA,8,NA,3,2,2,NA,NA,1,NA,NA,1,4,6,7,NA,NA,5,5,4,5,5,3,4,3,3,4,5,4,4,6,6,6,3,3,1,3,4,4,4,2,4,3,2,3,1,1,2,1,3,5,5,1,2,2,5,4,4,4,3,1,2,3,4,3,5,3,5,5,3,4,4,3,4,5,5,3,3,3,3,1,2,4,4,4,3,3,4,1,4,3,4,4,3,4,3,4,1,2,2,2,4,3,2,2,3,4,2,2,2,3,3,3
"Chile",1978,2,6,2,3,2,1,1,0,1,NA,36.2,36.1,36.3,33.449996948242,85,14,2,1,3,2,2,2,2,5,NA,8,5,5,3,2,1,2,5,5,8,8,1,1,NA,1,NA,NA,NA,NA,NA,NA,NA,NA,NA,NA,3,3,4,5,2,4,2,3,5,2,3,4,5,3,4,4,4,2,3,4,5,2,4,3,4,4,2,4,4,1,1,1,1,2,1,1,5,5,1,2,2,1,1,1,1,1,1,4,4,4,6,4,4,4,2,4,4,5,6,7,2,1,3,7,4,6,4,7,4,5,5,5,4,4,4,4,4,4,5,7,7,4,4,4,5,5,5,5,3,3,3,3,1,3,2,2,2,2,2,1,2,1,2,5,1,1,2,2,1,1,2,2,1,1,1,5,6,6,6,6,1,1,5,2,1,5,5,5,3,1,5,1,1,1,1,1,5,1,1,3,4,2,4,3,4,3,3,3,4,4,3,3,3,1,3,5,5,3,4,1,2,3,2,5,2,1,1,1,3,1,1,4,3,3,3,4,5,1,1
"Portugal",1978,2,5,2,4,2,1,0,0,2,NA,36.35,36,36.7,38.716705322266,79,13,8,1,2,1,NA,4,2,5,1,8,8,8,8,1,NA,2,8,2,1,8,8,1,NA,2,"Ginasio","Aulas","Social",NA,NA,7,7,7,NA,NA,4,4,4,3,4,5,2,4,4,3,4,4,4,4,3,2,2,2,2,2,2,3,3,3,3,2,1,2,2,2,2,2,2,2,2,2,4,2,4,2,4,2,2,2,3,2,2,2,2,2,2,3,2,2,2,1,2,5,2,2,2,2,3,2,2,5,1,7,1,2,2,2,1,1,2,2,6,6,2,6,6,1,5,3,4,4,4,4,4,4,4,4,1,2,1,1,1,1,1,1,1,1,2,1,1,1,1,5,1,2,3,1,3,2,2,4,6,6,4,4,4,4,1,3,3,5,4,2,3,5,2,2,4,3,3,4,3,5,3,4,4,4,4,3,3,2,2,2,4,2,2,3,2,2,2,4,2,3,1,3,3,3,3,3,3,2,2,3,2,2,2,4,3,3,2,3,3,4,1
"Poland",1978,1,7,1,3,2,1,2,1,2,NA,36.35,36.4,36.3,52.25,90,1,9,1,1,3,3,1,1,2,2,5,3,3,1,2,4,2,8,6,8,8,3,2,3,1,NA,NA,NA,NA,NA,NA,NA,NA,NA,NA,3,5,2,2,4,5,1,2,2,5,3,4,2,3,3,4,4,4,5,4,3,4,3,3,4,4,3,2,2,3,4,1,1,1,2,2,3,1,2,2,1,1,1,1,1,1,1,5,2,2,2,5,5,2,2,3,1,6,5,2,2,2,5,2,2,2,2,2,2,2,2,2,2,5,2,2,3,2,2,6,5,2,2,5,5,5,5,5,5,4,5,4,5,5,4,5,6,6,5,2,2,1,2,2,1,2,1,1,2,2,3,2,2,2,1,5,7,5,2,3,1,2,2,3,4,4,4,2,2,2,2,4,2,2,2,2,2,2,2,4,2,4,4,4,4,4,4,4,3,4,5,3,1,3,1,1,1,4,1,4,2,3,3,5,2,1,1,4,3,2,2,2,2,4,4,4,3,2,2
"VCU",1978,1,7,2,2,2,1,6,0,2,NA,36.41666667,36.33333333,36.5,37.733795166016,91,14.44444444,5,1,4,1,NA,4,4,5,NA,3,3,8,8,1,NA,2,8,3,1,6,1,2,8,2,"Alcoholics Anonymous","IATSE Local 285",NA,NA,NA,7,7,NA,NA,NA,3,1,3,2,3,3,2,3,2,3,4,5,3,2,3,4,2,2,2,2,2,2,3,3,4,2,2,3,4,3,4,4,2,3,3,4,4,4,4,4,4,1,1,1,1,3,4,2,2,3,2,2,3,2,3,3,3,2,2,3,3,3,2,5,2,1,2,2,1,2,1,2,2,2,2,1,2,2,1,2,2,1,2,5,4,5,4,4,5,5,5,5,4,4,4,4,4,2,2,2,3,1,2,2,2,3,2,1,1,1,3,3,1,2,2,5,5,6,4,4,4,3,5,5,5,3,1,1,4,3,1,5,5,3,4,5,2,5,2,4,2,2,5,5,4,5,5,5,4,4,5,5,1,2,2,4,4,5,4,4,1,4,3,4,2,4,5,3,4,3,5,3,4,3,4,3,2,2,4
"METU",1978,2,6,1,2,2,1,NA,NA,1,40,36.45,36.8,36.1,39.923004150391,67,6,3,2,1,1,NA,2,2,4,1,5,5,4,4,1,NA,2,1,3,3,3,1,1,NA,1,NA,NA,NA,NA,NA,NA,NA,NA,NA,NA,3,2,3,2,3,3,1,1,3,1,4,2,3,3,3,4,3,3,2,3,3,3,2,4,4,4,2,4,2,4,4,3,5,2,2,2,4,3,4,3,4,2,2,2,3,2,4,6,5,6,6,5,6,1,5,5,5,6,6,4,2,2,7,2,2,1,1,5,3,3,2,2,3,2,1,2,2,2,2,6,5,1,3,5,4,4,3,2,4,4,4,3,3,4,3,4,4,3,3,2,2,3,3,2,3,3,4,3,3,2,2,2,3,3,2,5,6,6,6,6,4,4,1,1,4,4,3,4,2,2,5,5,5,1,4,5,5,3,4,4,4,3,5,5,3,4,4,3,3,3,3,3,1,1,2,4,4,4,1,4,2,4,4,4,3,3,2,3,3,4,4,4,2,3,4,3,3,1,4
"Poland",1978,1,4,1,5,2,1,14,0,2,NA,36.5,36.5,36.5,52.25,83,1,9,1,1,1,NA,3,3,3,3,3,1,6,3,1,NA,2,8,3,1,8,3,1,NA,2,"sport",NA,NA,NA,NA,5,NA,NA,NA,NA,3,4,3,5,4,4,2,4,3,4,5,4,4,1,3,3,4,5,4,4,2,4,4,3,3,4,1,2,2,1,3,3,1,1,1,1,3,2,3,3,3,1,1,1,2,1,2,1,1,1,2,4,1,1,2,1,1,7,3,1,1,2,5,2,2,2,1,5,1,1,1,2,1,2,1,1,3,2,1,6,4,2,2,4,5,4,5,5,5,3,4,4,6,3,2,3,4,3,3,2,2,1,2,1,2,3,2,2,1,2,3,2,1,3,1,4,5,5,2,2,5,5,2,3,3,4,3,3,3,4,2,4,3,4,2,3,4,3,3,4,5,5,3,2,5,4,4,4,3,4,4,4,1,2,2,2,1,3,3,2,2,3,2,1,2,2,2,3,2,4,3,4,3,3,5,4,3,3,4
"Zurich",1978,2,6,1,5,2,1,27,0,2,NA,36.55,36.5,36.6,47.560302734375,59,2,1,1,1,3,3,4,1,4,1,1,NA,5,3,1,NA,1,NA,1,NA,NA,3,1,NA,2,"kynologischer Verein","unihockey club",NA,NA,NA,6,2,NA,NA,NA,4,3,3,1,4,5,2,5,2,4,4,3,1,3,3,3,2,2,2,2,3,2,2,4,3,2,3,2,4,2,4,4,2,3,2,4,4,2,4,4,4,2,2,2,2,2,4,2,3,3,1,1,2,2,1,3,2,6,1,5,1,1,2,1,1,1,1,5,1,1,1,1,2,2,1,1,1,1,1,5,5,2,2,4,5,4,5,5,3,2,4,4,3,3,2,2,1,2,2,2,2,1,2,3,2,4,2,2,2,4,2,2,2,3,1,5,8,7,4,7,6,3,1,2,2,5,4,2,1,2,3,2,2,1,2,2,4,2,2,4,2,5,5,5,4,4,4,3,2,3,4,2,2,4,4,4,1,4,3,2,2,2,2,2,4,4,4,4,4,5,4,4,2,3,4,2,2,2,2
"Poland",1978,2,7,1,5,2,1,0,10,2,NA,36.6,36.3,36.9,54.360794067383,81,1,9,1,1,3,3,2,2,4,4,5,2,8,8,2,1,2,8,6,8,7,1,2,8,1,NA,NA,NA,NA,NA,NA,NA,NA,NA,NA,4,4,3,4,4,4,3,4,3,2,4,4,4,2,3,3,4,5,4,5,2,4,3,2,3,5,2,1,2,1,1,3,1,1,1,2,2,2,1,2,2,1,1,1,2,1,1,2,1,1,1,1,2,1,2,6,1,7,1,2,1,1,3,2,1,2,2,6,2,2,4,4,3,4,2,2,6,2,4,6,7,2,2,5,5,4,5,5,3,3,3,3,1,1,1,1,1,2,1,1,1,1,1,2,2,1,2,2,2,2,3,2,3,3,4,5,4,4,1,2,1,1,1,2,2,4,4,5,1,1,4,2,2,2,2,2,4,1,4,4,1,4,3,4,4,2,1,5,4,4,4,3,2,3,2,2,3,5,3,2,2,2,4,4,2,2,2,1,4,3,3,4,4,2,4,2,2,5,1
"Zurich",1978,2,6,1,2,2,1,2,2,2,NA,36.85,37,36.7,47,NA,NA,1,1,1,1,NA,4,4,2,2,5,1,3,1,1,NA,2,1,3,1,8,1,1,NA,1,NA,NA,NA,NA,NA,NA,NA,NA,NA,NA,3,3,4,4,3,4,2,4,3,3,3,3,4,3,3,4,2,3,3,3,4,3,3,3,2,3,2,2,4,3,3,3,3,3,3,3,3,4,3,3,2,1,2,2,2,1,3,3,2,4,5,4,4,4,4,4,4,5,5,4,4,4,4,4,2,4,3,1,4,4,3,4,4,4,4,4,4,4,3,6,6,3,5,4,3,4,4,3,3,3,3,2,3,3,6,5,4,4,4,3,3,4,3,3,4,3,3,3,3,4,3,3,2,3,2,4,5,6,5,5,2,3,4,3,1,4,3,4,3,3,4,3,2,1,2,3,4,2,3,2,2,3,4,4,3,3,3,3,2,3,3,2,2,3,3,2,3,4,3,2,3,3,4,3,3,2,2,3,3,2,2,3,3,2,3,3,3,3,3
"Kassel",1979,1,2,1,3,2,1,0,0,2,NA,35.3,34.6,36,50.079406738281,68,4,1,1,1,3,3,4,2,4,4,6,2,4,4,1,NA,1,NA,1,NA,NA,3,1,NA,1,NA,NA,NA,NA,NA,NA,NA,NA,NA,NA,3,2,3,2,4,3,2,2,3,3,4,3,3,2,3,3,2,3,2,3,3,3,2,3,3,2,3,3,3,2,4,3,1,1,4,4,3,2,3,3,2,1,1,1,1,1,3,2,1,2,4,5,4,1,4,7,2,7,2,3,4,4,5,4,2,2,2,2,3,2,5,7,3,4,2,3,2,4,5,4,5,4,4,4,4,4,4,4,3,2,1,3,3,4,3,4,4,4,4,4,2,2,2,3,3,3,3,2,3,3,2,2,2,2,1,5,6,5,6,4,5,5,2,2,4,4,4,3,5,4,3,2,4,3,2,4,4,2,2,4,2,4,3,4,4,3,4,3,3,3,4,4,2,2,2,2,2,4,3,2,3,2,2,4,3,3,4,4,4,3,2,3,2,2,2,2,2,3,2
"Portugal",1979,1,6,1,3,2,1,2,0,2,NA,35.7,35.7,35.7,38.716705322266,79,13,8,1,1,2,2,2,2,4,4,2,2,2,2,1,NA,1,NA,3,4,4,1,1,NA,1,NA,NA,NA,NA,NA,NA,NA,NA,NA,NA,4,3,5,5,3,4,4,4,4,4,4,4,4,4,4,4,2,2,2,2,3,1,2,4,4,2,3,3,4,3,4,3,2,3,2,4,5,4,5,4,5,2,3,4,4,2,5,6,2,3,6,6,3,2,6,3,5,5,2,2,2,1,6,6,1,6,6,3,2,3,2,2,2,1,5,2,5,2,1,5,5,2,2,5,5,5,5,5,5,4,5,5,4,6,7,5,5,5,5,2,5,2,3,2,5,5,2,5,1,5,3,3,1,3,1,3,3,5,2,2,2,2,4,3,4,5,3,2,2,2,4,3,4,2,3,4,4,3,2,3,4,4,3,3,3,1,1,1,3,2,3,3,2,2,2,1,3,4,3,1,2,3,3,3,4,2,3,4,3,3,3,3,3,3,2,3,3,3,3
"Oxford",1979,2,7,1,5,2,1,1,0,2,NA,35.7,35.6,35.8,51.75,74,2.777777778,5,1,1,3,3,2,2,3,3,3,3,5,5,1,NA,1,NA,3,8,8,2,1,NA,1,NA,NA,NA,NA,NA,NA,NA,NA,NA,NA,4,2,5,5,5,4,5,4,4,5,5,4,5,3,3,3,3,2,1,1,2,3,1,3,5,1,3,4,5,4,5,4,4,5,4,2,5,5,5,5,4,5,5,5,5,5,5,5,4,3,5,4,2,7,5,6,1,7,1,1,1,4,1,1,1,1,1,1,1,1,1,1,1,1,1,1,1,1,1,1,2,1,1,5,5,5,5,5,5,5,5,5,2,4,4,3,3,3,3,1,2,1,2,2,1,1,3,2,1,1,2,2,2,4,1,5,8,5,2,2,2,2,4,4,2,5,4,2,2,2,2,4,1,1,4,4,1,2,4,4,2,4,4,4,4,4,4,4,2,3,4,3,1,1,1,1,5,5,4,2,2,4,4,2,4,4,4,5,2,4,4,4,4,4,4,4,4,4,2
"METU",1979,1,5,1,3,2,1,2,5,1,2,35.9,35.6,36.2,39.911697387695,64,2,3,2,1,1,NA,4,4,4,2,3,3,1,1,1,NA,1,NA,3,8,8,1,2,4,2,"ara?t?rma grubu","siyasi parti","i? yeri",NA,NA,10,6,5,NA,NA,2,4,4,3,4,4,1,3,4,2,3,3,3,2,2,4,3,3,4,3,4,3,4,3,4,4,3,1,2,1,1,4,1,1,1,1,2,1,2,3,1,1,1,1,2,1,1,2,2,2,1,5,5,2,1,2,4,2,2,2,1,4,6,2,1,2,3,2,1,4,2,2,1,1,3,2,2,2,5,1,2,1,2,4,4,3,4,4,3,3,2,1,6,4,5,4,5,5,4,3,4,1,2,2,2,4,4,3,2,1,2,1,4,5,3,4,5,4,1,2,3,5,1,4,4,5,5,4,3,3,4,1,2,2,1,2,4,1,4,3,3,4,2,1,5,4,4,4,3,3,3,2,2,3,3,2,2,2,3,3,2,1,1,5,1,4,2,4,3,5,5,3,3,4,3,2,3,2,4
"Kassel",1979,2,7,1,4,2,1,0,0,2,NA,36.1,35.9,36.3,51.316696166992,54,5,1,1,1,2,8,4,4,4,2,2,1,3,3,1,NA,2,4,1,NA,NA,2,1,NA,1,NA,NA,NA,NA,NA,NA,NA,NA,NA,NA,4,3,5,4,4,4,3,2,4,4,3,4,4,2,2,3,2,2,2,2,3,2,2,3,4,2,2,3,3,3,3,3,3,3,3,3,3,4,3,3,3,3,3,3,2,3,3,1,1,1,1,1,1,1,1,7,1,1,2,1,1,1,1,2,1,1,1,4,3,2,1,3,2,2,2,2,2,2,2,7,7,2,1,4,4,4,5,4,3,4,5,5,4,1,1,3,3,3,3,2,1,1,2,2,2,1,2,3,1,2,2,2,2,3,2,5,7,5,3,4,1,1,1,3,1,5,5,5,2,2,4,1,2,1,1,2,3,1,4,2,2,3,4,4,3,3,4,3,3,3,3,3,1,1,1,1,5,4,3,2,2,2,4,5,2,1,1,5,5,3,2,4,3,2,4,2,3,2,1
"VCU",1979,1,7,1,2,2,1,0,0,2,NA,36.16666667,36.05555556,36.27777778,37.553802490234,91,14.44444444,5,1,4,1,NA,4,4,5,NA,1,NA,7,3,1,NA,2,8,3,1,8,1,2,8,2,"Special Olympics","Italian Club","Military Student Veterans Assoc",NA,NA,7,7,7,NA,NA,3,4,4,3,3,2,2,4,4,4,4,4,3,4,3,2,3,3,2,2,2,2,2,2,3,3,2,4,4,2,3,2,2,2,2,3,3,3,3,3,3,3,1,3,3,3,3,5,2,2,2,3,3,5,2,2,2,2,1,2,2,2,2,4,2,2,6,2,2,2,1,2,2,2,2,2,3,2,2,2,5,2,2,4,4,4,4,4,4,3,4,4,6,5,3,4,3,3,4,2,2,3,2,2,2,2,2,2,2,2,2,2,3,3,2,2,2,1,1,1,1,1,4,2,4,4,4,2,2,2,4,4,2,2,3,2,2,4,2,3,3,3,4,5,4,4,2,4,2,2,2,2,2,2,2,4,4,5,5,4,2,3,4,2,2,2,4,3,4,2,3,1,2,4,3,2,3,2,2
"Serbia",1979,2,7,1,5,2,1,0,0,1,0,36.25,36.2,36.3,44.818603515625,95,11,6,1,1,3,3,4,4,4,4,3,1,4,4,1,NA,1,NA,3,1,6,3,1,NA,1,NA,NA,NA,NA,NA,NA,NA,NA,NA,NA,4,3,3,5,4,3,2,2,4,4,4,5,3,3,3,3,3,3,3,2,3,2,2,3,4,2,2,4,2,2,2,1,1,2,1,4,4,4,2,4,2,1,1,2,2,1,3,2,1,1,1,1,1,1,1,1,1,1,1,1,1,1,1,2,2,1,1,4,1,1,1,1,NA,1,1,1,NA,NA,1,6,6,NA,NA,4,4,4,4,4,2,3,4,4,3,2,2,2,2,2,2,1,2,1,2,4,1,2,2,1,2,2,2,2,1,3,2,4,5,4,1,3,3,3,2,4,3,4,2,2,4,2,2,5,2,3,1,2,3,4,3,3,3,5,3,3,3,3,1,2,1,4,4,2,3,2,2,1,2,4,4,3,2,2,3,4,3,1,2,4,2,2,2,2,5,3,3,3,1,4,2
"Poland",1979,2,7,1,2,2,1,13,3,2,NA,36.75,36.6,36.9,52.25,88,0,9,1,1,2,2,4,4,4,1,3,1,8,8,2,1,2,5,6,1,8,2,1,NA,1,NA,NA,NA,NA,NA,NA,NA,NA,NA,NA,2,2,1,4,2,2,1,2,4,3,2,4,1,2,4,4,3,3,2,3,5,1,2,3,5,4,5,5,5,4,4,4,3,3,5,4,5,5,5,5,5,3,4,4,4,2,5,1,2,1,2,2,5,2,1,2,5,6,2,2,2,1,6,2,2,7,6,2,6,6,7,2,3,1,6,7,6,7,2,7,6,2,6,2,4,4,4,3,3,2,4,4,7,7,7,6,7,7,6,2,2,5,1,2,2,2,2,2,2,2,4,2,1,2,1,5,7,7,8,8,8,5,1,1,2,5,5,4,3,1,5,1,1,1,1,1,5,1,1,4,4,4,4,2,4,4,4,3,2,4,2,3,4,2,4,2,3,4,2,4,3,2,2,5,2,4,2,5,5,5,2,2,4,4,4,4,5,1,5
"Poland",1979,2,7,1,2,2,1,15,21,2,NA,36.85,36.7,37,54.360794067383,88,0,9,1,1,2,2,4,4,4,4,5,3,5,5,2,8,2,8,6,1,8,3,2,4,1,NA,NA,NA,NA,NA,NA,NA,NA,NA,NA,5,3,5,5,5,4,5,4,4,4,5,5,5,2,5,4,4,4,4,3,3,4,3,5,5,3,4,1,1,1,1,4,3,1,1,1,4,1,4,1,3,1,1,1,1,1,2,7,1,1,1,2,6,1,1,5,5,7,1,5,1,1,5,2,1,5,2,3,2,2,2,1,3,1,2,2,2,1,2,5,5,1,2,4,4,3,5,5,3,4,3,3,3,2,2,4,3,3,2,2,1,3,1,2,2,2,3,2,2,1,2,2,3,3,4,5,7,6,3,3,4,1,5,3,2,5,3,5,3,2,5,2,1,2,2,3,4,1,2,2,2,3,4,4,3,2,5,5,2,2,2,4,1,3,4,4,1,5,2,1,2,3,2,2,3,2,1,2,5,4,2,1,3,5,4,4,4,5,3
"Oslo",1980,1,7,1,5,2,1,0,0,2,NA,35.15,34.1,36.2,59.916702270508,75,0,4,1,1,3,3,4,4,4,4,5,5,6,2,1,NA,1,NA,3,1,6,4,1,NA,1,NA,NA,NA,NA,NA,NA,NA,NA,NA,NA,2,4,3,4,3,3,2,3,2,3,3,3,4,3,2,3,2,1,1,2,4,2,3,2,4,4,2,3,3,3,4,2,2,4,2,4,4,4,3,3,2,1,1,2,4,3,3,3,2,1,2,4,5,2,3,2,1,3,6,3,5,2,3,4,1,4,4,2,2,2,2,1,2,5,4,2,2,3,2,3,2,3,3,5,5,5,5,5,4,5,5,5,3,2,2,2,2,2,3,2,2,1,3,2,2,2,2,1,3,2,2,1,3,4,3,5,6,4,3,5,2,5,2,4,4,4,2,3,3,4,2,4,4,2,3,4,3,4,4,3,2,3,4,2,1,4,4,5,4,3,3,4,1,2,1,1,4,4,4,3,2,2,3,2,4,3,2,4,2,4,4,4,4,4,4,4,3,4,3
"Poland",1980,2,4,1,4,2,1,5,0,2,NA,36.05,35.9,36.2,52.25,83,0,9,1,1,2,2,2,2,4,1,8,4,4,3,2,3,2,6,6,1,3,1,1,NA,2,"studencka",NA,NA,NA,NA,4,NA,NA,NA,NA,3,2,3,2,4,5,2,4,2,3,3,2,4,3,4,4,4,4,4,4,3,3,3,3,3,3,4,3,2,4,3,3,2,2,2,2,5,4,4,4,4,1,1,1,1,1,4,5,5,5,5,5,2,5,3,6,5,3,2,2,1,5,7,2,1,2,2,6,2,2,2,1,2,2,3,3,3,3,1,6,2,3,4,4,4,4,4,4,5,3,4,4,5,5,5,5,5,4,4,3,1,1,2,2,3,2,1,2,1,2,4,2,2,3,2,4,5,6,6,5,4,1,1,4,3,4,1,5,1,2,5,5,3,1,1,3,1,2,3,3,4,4,4,4,4,5,2,5,5,3,4,4,1,1,3,1,5,5,4,1,1,2,5,4,3,2,1,3,4,4,2,4,2,4,2,3,4,1,4
"Oxford",1980,1,1,2,1,2,1,9,0,2,NA,36.1,35.5,36.7,51.75,88,-2.222222222,5,1,2,1,NA,4,4,5,NA,8,4,4,4,2,1,1,NA,2,1,2,1,1,NA,1,NA,NA,NA,NA,NA,NA,NA,NA,NA,NA,3,3,1,4,2,2,1,2,2,3,5,1,2,4,3,3,2,2,3,3,4,2,3,3,5,3,4,2,4,1,2,1,1,3,1,4,3,3,3,2,3,1,2,2,2,1,3,7,7,7,7,7,7,7,7,7,7,7,7,7,6,7,7,6,4,5,6,6,4,6,2,1,7,4,4,3,1,4,1,4,4,4,6,5,5,5,5,5,5,5,5,5,1,1,1,1,1,1,1,3,3,3,4,2,4,4,3,1,3,1,1,1,1,1,2,2,2,2,2,2,2,2,4,4,5,5,2,3,3,3,3,4,4,3,4,4,4,4,3,4,1,5,5,5,5,5,5,5,5,3,3,4,3,1,2,3,1,3,3,4,4,3,5,4,2,1,2,4,3,5,5,3,4,5,3,5,3,1,3
"METU",1980,2,4,1,3,2,1,NA,NA,1,4,36.2,36,36.4,39.911499023438,43,0,3,2,1,1,NA,4,4,4,1,8,6,4,4,1,NA,2,2,3,1,8,1,1,NA,2,"Parti","Dernek",NA,NA,NA,7,7,NA,NA,NA,2,2,1,2,1,3,1,1,3,2,4,1,3,3,4,4,2,2,2,3,2,2,1,4,4,3,2,4,4,4,3,3,1,2,1,4,4,2,3,4,3,2,1,2,3,1,3,5,3,2,2,7,5,1,3,2,5,2,5,6,5,2,2,6,1,2,2,2,2,1,2,4,2,2,2,2,3,2,3,2,2,2,5,5,4,5,4,2,5,5,5,5,6,5,4,4,4,3,3,3,2,5,3,2,2,3,2,1,3,3,2,1,2,2,2,4,4,7,2,3,2,1,1,3,1,5,4,5,3,3,5,4,2,1,1,1,5,1,5,4,3,3,4,3,5,5,3,4,4,4,4,4,2,3,3,4,3,5,3,5,4,2,2,4,2,4,1,4,1,5,4,4,2,4,4,3,3,5,1
"METU",1980,2,7,2,3,2,1,NA,NA,2,NA,36.25,36.3,36.2,38.773498535156,39,12,3,2,2,1,NA,4,4,5,NA,2,3,5,4,1,NA,1,NA,3,1,3,1,2,7,2,NA,NA,NA,NA,NA,NA,NA,NA,NA,NA,2,2,5,3,3,4,2,2,4,1,4,2,2,4,4,4,2,2,1,2,3,3,2,4,4,2,3,4,3,2,2,4,2,3,4,4,4,4,4,2,4,2,2,4,4,4,4,5,5,4,5,5,5,5,5,5,1,5,4,5,6,3,7,3,2,1,3,3,1,1,3,3,3,3,1,2,3,1,3,3,3,1,3,4,4,4,4,4,2,2,4,2,3,4,5,4,5,5,4,2,2,2,2,1,1,2,1,1,2,2,2,2,2,2,2,5,6,5,1,5,2,3,1,1,2,5,4,4,4,2,5,4,4,2,2,4,5,2,4,3,5,4,5,5,4,4,4,4,2,4,4,4,2,3,4,4,5,2,2,4,4,4,4,4,4,2,5,4,2,4,4,2,2,3,4,4,3,4,2
"Kassel",1980,1,5,1,2,2,1,0,0,1,1,36.4,36.4,36.4,50.983306884766,NA,NA,1,1,5,3,3,4,4,2,1,4,4,3,3,2,1,2,2,3,5,8,5,1,NA,1,NA,NA,NA,NA,NA,NA,NA,NA,NA,NA,3,2,4,3,2,3,2,3,3,3,3,3,4,3,3,4,2,3,3,3,3,3,3,3,4,2,3,3,4,2,4,1,1,2,2,2,1,3,1,2,1,2,1,2,1,2,1,3,2,2,2,2,2,2,2,4,2,6,2,4,6,3,5,2,1,2,4,6,4,7,7,6,1,3,3,3,1,2,1,6,6,1,3,5,4,4,4,5,5,5,5,4,5,5,5,5,4,4,4,2,3,2,4,2,2,2,2,3,2,2,2,3,2,3,1,4,3,5,3,3,3,3,3,3,2,5,3,2,2,2,2,4,3,3,2,3,2,2,3,4,3,4,3,4,4,3,3,3,2,3,3,3,2,3,2,3,2,2,4,2,2,3,3,1,3,3,3,3,4,3,3,3,3,2,3,2,3,4,2
"Portugal",1980,1,6,1,4,2,1,13,0,2,NA,36.45,36.4,36.5,38.716705322266,73,13,8,1,1,1,NA,4,1,4,4,4,1,7,1,1,NA,1,NA,3,1,8,1,1,NA,2,"COPELABS",NA,NA,NA,NA,8,NA,NA,NA,NA,4,5,4,3,4,2,5,4,5,5,5,5,5,2,2,3,2,2,2,2,2,2,2,2,4,2,2,1,2,1,3,1,1,2,1,1,4,1,2,1,3,1,1,1,2,1,1,1,1,1,1,3,7,1,1,1,1,2,1,1,3,1,1,3,1,1,1,1,4,1,1,1,4,4,1,1,4,4,1,2,2,4,4,5,5,5,5,5,4,4,4,1,3,7,7,7,5,4,4,1,1,1,2,1,1,1,1,5,1,1,2,5,3,3,1,5,3,5,2,3,2,2,4,2,5,2,3,4,4,3,5,3,2,3,4,4,4,5,3,3,4,4,3,4,4,1,1,1,1,3,3,3,4,2,1,1,1,5,4,4,2,2,2,4,3,2,2,3,4,4,4,4,2,3,3,3,3,4,3
"Poland",1980,2,7,1,3,2,1,7,4,2,NA,36.49,36.41,36.57,52.32780456543,73,3,9,1,1,2,2,4,2,2,2,4,1,4,3,1,NA,2,8,2,2,1,2,2,1,1,NA,NA,NA,NA,NA,NA,NA,NA,NA,NA,3,4,4,4,5,4,2,3,3,5,5,3,5,3,3,3,5,4,5,4,2,3,4,3,3,4,3,1,1,1,4,3,1,1,1,1,4,4,4,1,1,1,1,1,1,1,1,5,3,2,1,4,5,1,2,2,1,7,1,1,1,2,6,5,1,2,1,2,1,4,1,1,2,2,1,1,4,2,1,4,4,2,2,4,5,5,5,5,5,5,5,5,5,4,4,4,4,5,5,2,2,1,2,1,1,2,2,2,1,2,2,1,1,1,2,3,4,5,2,2,3,4,2,5,2,4,1,2,2,4,2,5,4,2,4,5,4,4,4,5,1,5,4,5,4,5,2,4,2,3,5,1,1,2,1,1,2,2,2,1,3,2,2,4,4,2,2,4,4,5,5,4,2,4,5,5,3,1,4
"Serbia",1980,1,7,2,3,2,1,1,0,2,NA,36.7,36.7,36.7,44.818603515625,65,8,6,1,2,1,NA,4,2,5,NA,4,4,3,3,1,NA,2,8,3,1,6,4,1,NA,1,NA,NA,NA,NA,NA,NA,NA,NA,NA,NA,4,3,4,4,4,4,4,2,4,3,4,4,4,3,3,3,3,3,2,3,3,2,3,3,4,2,3,2,2,1,2,2,2,1,1,2,2,2,1,2,1,1,1,1,2,1,2,2,2,5,2,2,2,2,2,3,2,NA,2,2,2,2,8,5,2,2,NA,8,NA,2,3,3,6,3,NA,NA,6,3,2,6,6,NA,NA,4,4,4,2,4,4,3,4,2,6,3,3,2,3,2,3,2,2,1,2,2,1,4,1,2,2,2,2,1,2,2,1,5,6,5,6,6,6,6,2,4,2,2,1,4,2,2,2,4,3,2,2,2,3,3,4,2,4,4,4,2,4,2,2,2,2,2,4,2,3,3,2,4,4,4,4,2,2,2,3,4,2,2,2,2,4,4,3,4,2,2,4,4,4,4,2
"Poland",1980,2,5,2,4,2,1,15,3,2,NA,36.7,36.7,36.7,52.25,72,2,9,1,2,1,NA,4,4,5,1,6,5,6,4,1,NA,2,5,6,2,8,1,1,NA,2,"grupa dot.rodzicielstwa zast?pczego",NA,NA,NA,NA,4,NA,NA,NA,NA,4,4,2,5,3,4,3,4,3,3,5,4,5,3,3,3,4,4,4,4,3,4,3,3,4,5,3,4,3,3,4,2,2,4,2,4,3,4,4,4,4,1,3,3,4,2,4,2,2,2,2,5,5,4,3,2,2,6,2,2,2,2,5,1,3,1,2,7,2,2,2,2,2,2,2,2,6,5,2,7,7,2,2,4,4,4,4,3,3,4,4,3,3,4,4,3,5,3,3,3,2,2,2,2,2,3,2,2,2,2,3,1,1,2,2,3,3,5,3,4,4,5,2,5,3,4,3,1,3,4,1,5,3,2,3,5,4,3,1,4,3,4,4,3,4,4,4,4,4,3,4,3,2,2,2,2,1,3,3,3,2,3,2,5,3,2,2,3,2,3,3,2,3,3,4,2,3,3,2
"Zurich",1980,2,7,2,2,2,1,3,0,2,NA,36.75,36.9,36.6,47.351593017578,76,4,1,1,4,1,NA,4,1,4,1,3,1,4,1,1,NA,1,NA,1,NA,NA,1,1,NA,1,NA,NA,NA,NA,NA,NA,NA,NA,NA,NA,4,4,2,3,2,4,3,3,3,3,4,2,3,3,3,3,3,2,3,3,3,3,3,3,4,2,2,2,4,2,4,3,1,1,3,1,3,2,2,2,1,1,2,1,1,2,2,4,3,4,4,4,4,3,4,4,5,4,4,5,2,4,5,4,1,2,2,5,3,5,2,3,3,4,2,3,3,5,3,6,5,3,4,5,4,4,4,3,3,4,4,4,4,4,4,3,4,3,4,3,3,1,3,2,3,3,2,2,2,1,2,3,2,2,2,3,3,7,2,4,3,3,1,3,1,4,4,3,2,3,4,3,3,1,2,4,5,2,2,3,2,4,3,4,4,4,3,3,2,3,4,3,2,3,3,5,4,4,3,2,2,2,3,4,2,2,2,4,4,3,4,3,4,3,3,4,3,3,2
"Poland",1980,2,6,1,4,2,1,10,0,2,NA,36.75,36.6,36.9,52.25,70,4,9,1,1,2,2,4,4,2,2,3,2,2,2,2,1,2,4,6,4,2,1,1,NA,1,NA,NA,NA,NA,NA,NA,NA,NA,NA,NA,3,3,2,2,4,3,1,2,1,3,5,2,3,4,3,4,4,3,4,4,4,4,3,3,4,3,4,4,4,3,4,2,3,3,2,4,4,4,3,2,3,2,2,2,4,3,4,2,2,2,2,2,4,2,2,2,4,6,2,2,2,2,5,2,2,2,2,6,2,2,4,2,2,2,3,2,6,3,5,6,6,2,3,4,4,3,4,4,4,4,4,4,5,4,4,3,3,3,4,2,3,2,3,2,2,3,2,2,2,2,3,2,2,3,2,4,5,6,4,4,4,2,1,4,2,5,4,2,2,3,4,4,3,1,2,4,4,2,2,4,2,3,3,3,3,4,3,3,2,3,4,2,2,2,2,3,2,4,2,2,2,3,2,2,3,3,3,3,2,4,3,4,4,4,4,4,4,2,3
"Poland",1980,2,4,1,3,2,1,NA,1,2,NA,37.1,37.1,37.1,51.75,71,9,9,1,1,1,NA,3,3,4,2,4,4,3,3,1,NA,2,6,3,1,8,1,2,7,2,"Fundacja przeciwko przemocy","Fundacja samotnych matek","Imperium Kobiet",NA,NA,6,5,10,NA,NA,5,5,1,1,5,5,1,1,2,2,5,5,5,3,3,3,4,5,4,4,2,4,2,4,4,2,3,1,3,2,4,2,3,1,2,1,2,5,2,2,1,2,4,1,4,1,2,1,1,1,1,7,2,1,1,4,1,7,2,2,1,1,6,1,1,1,2,5,1,2,1,1,1,1,3,2,3,5,1,6,7,1,2,5,5,5,5,5,4,4,4,4,3,4,4,4,3,3,3,1,2,4,1,1,2,2,1,1,2,2,2,1,1,1,1,5,7,7,5,5,6,4,1,5,4,4,4,4,1,5,5,4,4,1,2,5,5,2,3,3,4,4,5,5,4,4,4,4,4,1,4,4,1,1,1,1,1,4,3,5,4,3,3,4,4,1,5,3,4,3,2,3,3,5,3,5,5,2,4
"Poland",1980,2,1,1,3,2,1,17,4,2,NA,37.3,37.3,37.3,51.100006103516,84,2,9,1,1,1,NA,2,2,4,1,6,6,6,5,1,NA,2,8,6,1,8,4,2,8,2,"Trening MBRS","KSR","Grupa psychologiczna",NA,NA,10,12,4,NA,NA,3,4,5,5,5,4,2,4,3,3,4,4,4,3,3,3,3,3,4,4,4,4,4,3,4,4,3,2,3,2,2,2,2,2,2,2,2,2,2,2,2,2,2,2,2,2,2,2,2,1,2,4,2,2,1,1,2,7,2,4,2,2,5,2,2,2,2,6,2,2,2,2,2,2,3,2,5,4,2,6,6,2,4,4,4,4,4,4,4,3,4,3,2,4,3,3,4,2,3,3,2,2,3,2,4,4,2,3,2,2,3,3,2,2,2,4,7,6,4,3,2,4,2,4,3,4,3,4,3,3,4,4,2,1,3,4,4,3,3,3,3,4,3,4,4,4,4,4,3,3,4,3,2,2,2,2,3,4,2,3,2,3,3,3,2,4,2,4,4,4,3,4,2,4,4,4,3,4,3
"Oxford",1981,1,7,1,5,2,1,0,0,2,NA,35.35,34.7,36,51.75,89,-1.666666667,5,1,2,1,NA,2,2,5,NA,8,8,4,3,2,8,2,8,3,3,8,2,1,NA,1,NA,NA,NA,NA,NA,NA,NA,NA,NA,NA,3,3,4,5,4,4,3,2,4,4,4,2,4,2,3,2,3,2,2,1,2,2,2,2,4,2,2,4,4,3,4,2,2,4,2,4,4,3,4,3,4,2,2,2,2,2,4,2,2,2,2,4,2,2,2,2,2,2,2,2,2,2,2,2,2,2,2,2,2,2,2,2,2,6,2,2,2,2,2,4,2,2,2,4,4,4,4,4,4,4,4,4,5,7,7,6,5,5,5,1,1,1,2,1,1,1,1,2,1,1,3,2,2,3,5,2,2,3,2,2,1,1,1,4,4,4,3,2,2,3,3,4,3,2,4,3,2,2,2,4,4,4,4,4,4,4,4,4,4,4,4,4,2,2,2,3,2,3,3,2,3,4,3,4,4,4,2,3,3,3,3,2,3,2,2,2,3,4,2
"Poland",1981,2,6,2,3,2,1,3,3,2,NA,36.15,36.5,35.8,52.25,68,0,9,1,1,1,NA,4,2,2,2,1,NA,3,3,1,NA,2,5,6,3,4,1,1,NA,2,"ustawienia",NA,NA,NA,NA,1,NA,NA,NA,NA,3,3,4,3,4,4,3,4,3,4,5,3,4,2,3,2,4,5,4,3,2,4,3,1,2,2,2,2,2,1,1,1,2,2,1,2,3,2,3,3,3,2,1,1,2,1,3,1,1,1,1,4,1,1,2,1,1,7,2,3,1,1,1,1,2,2,4,7,2,1,2,2,2,2,4,5,7,7,3,7,7,2,2,5,3,4,4,4,4,4,3,3,3,4,3,3,3,3,3,2,1,5,1,3,3,1,1,1,1,2,4,3,1,1,1,5,5,4,5,5,8,8,1,5,2,4,2,4,2,3,4,4,3,1,2,3,3,2,4,2,4,4,5,3,4,4,4,4,4,3,3,2,2,2,2,2,3,4,3,5,3,3,2,4,3,2,2,2,4,5,5,3,4,4,2,5,3,2,3
"Serbia",1981,2,7,2,5,2,1,0,0,2,NA,36.25,36.4,36.1,44,42,16,6,1,1,2,2,4,2,4,4,4,2,4,2,1,NA,1,NA,2,1,7,1,1,NA,1,NA,NA,NA,NA,NA,NA,NA,NA,NA,NA,5,4,5,5,4,3,1,4,5,3,4,4,2,3,3,4,2,2,2,2,2,3,2,3,4,2,2,1,1,1,1,1,1,1,1,3,4,3,3,4,4,3,3,3,2,3,3,2,1,3,2,4,1,4,2,7,3,1,2,2,2,1,2,2,2,3,NA,7,NA,2,4,2,NA,NA,NA,NA,NA,NA,2,7,7,NA,NA,4,4,4,4,4,2,2,2,2,4,3,2,2,2,2,2,2,2,3,2,2,2,3,2,3,2,2,1,1,1,1,2,1,2,4,1,4,2,2,3,3,3,3,3,3,3,2,2,4,2,3,5,3,4,2,5,5,5,4,3,5,5,1,3,3,3,4,3,3,2,1,3,1,2,3,2,5,3,1,4,5,1,3,3,4,3,2,4,4,4,3,1,3,3,4,1
"Poland",1981,2,7,1,5,2,1,20,0,2,NA,36.35,36.4,36.3,50.315399169922,70,-1,9,1,1,1,NA,4,4,4,1,8,4,4,4,2,1,2,8,6,4,8,3,1,NA,2,"fitness",NA,NA,NA,NA,3,NA,NA,NA,NA,4,4,5,4,4,4,3,3,3,4,5,5,4,3,3,3,4,4,4,4,3,3,4,4,4,5,2,1,2,1,3,1,1,1,1,1,1,1,3,2,3,1,1,1,2,1,3,2,5,5,6,6,1,5,1,5,2,3,1,2,1,2,6,2,1,1,2,1,1,1,1,1,1,1,2,2,2,2,1,4,3,2,5,4,5,4,5,4,4,4,5,4,5,7,7,7,7,5,5,2,1,1,2,2,1,3,2,1,2,1,4,2,1,3,2,4,5,6,4,5,7,4,1,5,2,5,4,4,2,2,4,3,2,2,2,4,4,2,3,4,2,4,3,3,4,5,4,5,5,4,5,4,1,1,1,1,3,5,3,2,2,3,2,4,2,2,1,4,4,5,5,3,2,4,4,3,3,3,2
"Chile",1981,1,6,1,5,2,1,0,0,2,2,36.45,36.6,36.3,33.426280975342,72,2,2,1,1,3,1,4,4,2,1,3,3,5,4,1,NA,1,NA,4,2,3,2,1,NA,1,NA,NA,NA,NA,NA,NA,NA,NA,NA,NA,5,3,2,4,1,4,4,4,5,2,5,4,1,3,2,3,1,2,1,2,2,2,1,3,5,3,2,2,4,2,2,2,1,2,1,2,3,2,3,1,3,1,1,1,1,2,3,1,1,1,1,1,2,1,4,5,1,7,1,4,1,1,2,1,3,4,4,5,4,7,3,6,3,3,4,4,6,5,4,7,7,6,7,4,5,5,5,5,3,2,3,4,4,4,3,3,2,2,2,4,2,1,4,1,1,3,4,5,1,1,1,3,2,3,2,2,2,1,2,1,2,2,5,2,2,5,5,2,2,3,3,2,2,4,2,4,2,2,2,2,1,3,5,5,2,1,3,2,4,3,4,4,3,4,5,5,5,5,5,5,1,1,1,5,1,1,3,5,2,2,2,5,1,4,3,2,2,5,1
"Oxford",1981,1,7,1,3,2,2,4,0,2,NA,36.5,36.3,36.7,51.75,88,-2.222222222,5,1,1,1,NA,4,4,4,4,4,2,4,2,1,NA,2,4,2,3,3,1,1,NA,2,NA,NA,NA,NA,NA,NA,NA,NA,NA,NA,3,4,4,2,2,2,3,2,2,4,3,3,4,3,3,3,2,3,2,3,2,3,2,3,4,3,3,3,4,3,4,3,2,3,4,3,2,2,2,3,2,2,2,2,2,2,3,7,4,4,4,5,5,6,2,6,4,4,3,6,5,3,2,1,5,3,2,4,7,2,2,2,3,2,3,2,2,2,2,2,4,3,2,4,4,4,4,4,3,3,3,3,5,4,5,4,3,3,4,2,5,4,2,3,4,4,3,2,3,2,3,1,1,2,1,4,5,7,1,6,5,5,1,3,1,5,5,5,2,2,5,2,2,5,1,3,5,1,5,3,2,4,2,2,4,5,5,5,3,4,3,2,2,3,3,4,5,4,3,5,4,2,1,4,2,5,1,4,5,5,3,4,2,3,4,4,5,3,5
"Poland",1981,2,5,1,4,2,1,5,1,2,NA,36.55,35.4,37.7,60.216705322266,62,-2,9,1,1,3,3,3,1,2,2,6,5,6,6,2,1,2,8,6,8,8,5,2,8,2,"Counselling","PTO","International Club",NA,NA,10,15,10,NA,NA,2,4,4,4,3,5,4,4,2,4,4,4,4,2,2,3,4,4,4,4,2,4,4,2,4,4,2,3,4,2,4,3,2,3,2,2,4,4,4,4,3,2,2,2,3,2,4,2,2,2,2,2,2,2,2,6,2,6,2,3,2,2,2,2,2,2,2,3,2,2,2,2,2,2,2,2,3,2,2,6,6,2,2,4,4,4,4,4,4,4,4,4,4,4,5,4,5,5,4,2,2,2,2,2,2,2,2,2,2,2,3,3,2,2,3,4,5,6,4,4,4,4,2,4,4,4,2,3,2,2,2,5,2,1,4,3,3,2,2,3,4,4,2,3,4,4,3,4,4,3,4,4,2,2,3,2,2,4,3,2,2,2,3,4,3,1,2,3,4,3,3,3,4,3,3,3,3,3,2
"Oslo",1981,2,7,1,3,2,1,0,1,2,NA,36.55,36.5,36.6,59.912704467773,76,-6,4,1,1,2,1,4,2,4,4,3,3,3,2,1,NA,2,4,2,1,1,1,1,NA,1,NA,NA,NA,NA,NA,NA,NA,NA,NA,NA,2,5,4,5,5,1,2,2,4,3,3,5,3,3,3,5,3,3,3,3,4,4,3,3,4,3,3,4,4,2,4,4,2,4,2,2,4,3,4,4,4,4,3,4,4,4,4,1,2,2,1,5,2,2,2,7,1,2,2,2,2,2,6,6,2,1,2,4,2,2,2,2,3,2,1,2,4,2,1,2,2,2,2,4,4,4,5,3,4,4,4,4,5,4,4,3,5,4,4,1,1,1,1,1,1,1,1,1,1,1,3,1,1,1,2,4,7,7,5,5,1,5,3,5,2,4,3,1,4,4,2,4,4,2,4,4,2,4,4,4,3,3,4,5,4,3,4,3,3,4,5,4,2,2,4,2,2,4,2,2,2,2,2,4,4,2,2,4,2,2,2,4,2,2,4,4,2,4,4
"Zurich",1981,2,6,2,3,2,1,5,7,1,4,36.65,36.4,36.9,47.025894165039,70,1,1,1,4,1,NA,4,4,5,NA,8,5,3,3,1,NA,2,3,3,8,8,1,1,NA,1,NA,NA,NA,NA,NA,NA,NA,NA,NA,NA,2,1,3,4,2,3,2,1,4,4,4,3,4,3,4,4,3,2,3,3,4,3,3,4,3,2,3,2,4,3,4,1,2,3,1,2,4,2,3,4,1,1,1,1,1,1,3,4,4,4,4,4,5,4,3,4,4,4,4,3,2,2,4,3,2,2,2,6,2,3,2,2,2,2,2,2,1,2,2,7,6,1,4,4,5,4,5,5,5,5,5,5,4,6,6,4,5,4,4,2,2,1,2,2,3,2,2,3,2,3,3,2,1,3,2,4,7,5,2,4,5,6,2,4,3,3,2,3,3,3,2,5,4,1,3,4,4,3,3,1,2,4,4,4,3,3,3,4,4,2,3,3,2,2,3,1,3,3,4,2,3,3,2,3,3,1,1,4,5,1,2,1,1,3,4,2,3,2,3
"Chile",1981,2,7,1,4,2,1,1,0,1,NA,36.65,36.5,36.8,33.449996948242,74,6,2,1,1,2,2,4,4,1,NA,7,7,8,7,1,NA,1,NA,4,1,3,2,1,NA,1,NA,NA,NA,NA,NA,NA,NA,NA,NA,NA,2,3,3,5,4,4,2,2,3,5,3,5,3,2,3,3,2,2,2,2,3,2,2,2,4,2,2,3,2,2,3,3,2,3,2,3,4,3,4,4,4,2,2,2,2,3,4,2,2,1,2,2,4,3,2,2,2,2,2,1,2,2,1,5,2,2,1,2,1,2,2,2,2,1,2,1,1,1,2,4,2,1,2,5,5,4,5,4,4,3,5,5,3,3,2,1,2,2,1,2,2,2,2,3,2,2,2,2,2,2,2,2,2,2,2,5,5,4,3,5,3,3,2,4,3,4,4,3,3,3,3,4,3,3,4,3,2,3,2,3,3,3,3,3,4,4,4,4,4,4,4,3,1,1,2,2,2,3,2,3,3,3,3,3,3,3,2,4,2,3,3,4,3,3,4,3,3,3,3
"Kassel",1981,2,6,1,2,2,1,35,0,2,NA,36.75,36.8,36.7,51.491806030273,61,10,1,1,1,2,2,4,4,4,4,4,1,8,4,2,1,2,8,1,NA,NA,2,1,NA,1,NA,NA,NA,NA,NA,NA,NA,NA,NA,NA,4,3,3,3,3,4,2,2,3,2,5,3,4,3,3,4,3,2,3,2,3,3,2,3,4,2,3,3,4,2,4,4,2,4,3,4,4,4,3,4,3,2,4,4,4,2,3,5,5,6,6,6,5,2,5,5,6,2,3,5,2,6,5,5,3,3,2,6,2,5,3,4,5,6,3,3,3,4,3,6,6,5,5,4,4,4,4,3,4,3,4,3,6,4,5,4,3,3,3,2,4,1,3,4,2,2,3,2,2,2,2,3,2,3,2,4,5,4,3,4,3,4,1,4,2,4,3,4,2,2,4,3,3,1,1,3,4,2,2,4,2,4,4,4,4,3,3,3,2,4,3,3,3,3,4,4,3,4,3,4,2,2,2,4,2,3,2,2,4,4,3,3,2,4,3,4,4,2,5
"Poland",1981,2,7,2,3,2,1,8,4,2,NA,37.05,36.9,37.2,52.083297729492,63,NA,9,1,4,1,NA,4,4,5,1,5,3,5,4,1,NA,2,5,2,1,1,1,2,8,1,NA,NA,NA,NA,NA,NA,NA,NA,NA,NA,3,2,3,5,5,5,1,1,1,5,2,5,3,3,4,4,3,3,3,3,4,3,3,3,4,3,4,2,2,2,2,2,2,2,2,2,4,2,4,2,4,1,2,2,2,2,4,2,2,1,2,2,2,2,5,2,4,7,1,1,1,1,7,1,1,2,2,6,2,6,1,1,2,2,2,2,6,6,1,7,7,2,4,2,2,3,3,1,2,2,2,2,6,2,2,2,2,5,5,1,1,1,2,3,1,2,2,1,1,2,2,2,2,3,2,3,4,5,2,2,1,3,1,2,1,5,5,2,1,2,4,2,1,2,1,2,4,1,1,2,1,3,4,1,4,4,3,4,1,3,4,1,1,4,1,1,5,3,3,2,3,4,2,4,2,1,3,3,4,3,3,4,2,1,4,3,4,2,2
"Poland",1981,2,4,1,3,2,1,5,0,2,NA,37.1,37.1,37.1,52.25,70,4,9,1,1,2,2,2,2,2,1,2,2,2,2,1,NA,2,8,6,1,8,1,1,NA,1,NA,NA,NA,NA,NA,NA,NA,NA,NA,NA,3,3,3,3,4,4,2,3,3,3,5,3,3,2,4,3,4,4,4,4,3,3,4,3,3,4,2,1,2,2,2,1,2,2,1,1,2,1,2,1,1,1,1,1,1,1,2,2,2,2,2,5,5,2,2,2,2,6,4,2,4,2,5,4,2,2,2,7,1,2,2,1,2,2,2,2,3,2,2,7,6,2,3,4,4,4,4,4,3,4,3,3,3,3,3,3,3,3,3,3,3,3,2,3,3,4,2,2,2,3,3,2,3,2,2,5,5,7,5,5,5,5,1,2,1,5,5,5,1,1,5,1,1,1,1,1,4,1,3,1,3,5,5,4,4,5,5,4,3,4,5,3,1,3,1,3,3,3,3,3,3,3,2,2,3,3,1,4,3,4,4,4,3,4,4,3,3,3,3
"Oxford",1982,2,7,1,3,2,1,3,0,2,NA,36,35.4,36.6,51.75,71,1.666666667,5,1,1,1,NA,4,4,4,1,4,2,5,3,1,NA,2,5,3,1,4,2,1,NA,2,"Graduate Student Committee",NA,NA,NA,NA,5,NA,NA,NA,NA,4,2,3,3,3,2,2,3,2,3,4,5,5,3,3,5,3,3,3,3,5,3,1,3,5,2,5,2,4,2,4,3,3,3,4,4,4,3,4,4,4,1,1,1,3,1,4,2,2,2,5,2,4,2,3,2,2,2,2,2,2,2,2,4,2,2,1,5,2,2,2,2,1,2,1,1,1,1,2,2,5,1,2,4,5,5,5,4,4,4,4,4,4,5,5,4,5,4,5,4,4,4,3,4,3,4,3,2,2,3,1,2,1,2,2,4,4,6,5,6,2,2,1,4,4,5,4,5,3,3,5,3,2,1,1,4,4,1,3,4,3,4,4,4,3,5,4,4,4,3,5,4,4,4,3,4,4,4,3,2,2,4,4,2,3,4,1,4,4,4,3,4,2,3,4,4,4,2,4
"UCSB",1982,2,7,2,3,2,1,0,0,2,NA,36.11111111,36.27777778,35.94444444,34.4329071,80,8.333333333,5,1,2,2,2,4,2,4,4,3,2,4,3,1,NA,2,3,1,NA,NA,4,1,NA,1,NA,NA,NA,NA,NA,NA,NA,NA,NA,NA,3,3,3,3,4,2,2,2,2,2,4,2,4,2,4,4,3,2,2,2,3,3,3,3,4,1,3,4,4,1,4,1,2,4,4,5,4,4,4,3,4,3,2,2,2,2,4,1,1,1,2,1,1,1,1,1,1,2,2,1,2,1,1,1,1,1,1,1,1,2,2,2,2,7,1,4,1,1,1,1,5,1,2,3,4,3,5,4,4,5,4,4,4,2,5,3,1,1,2,1,2,1,2,1,1,1,1,2,1,1,2,2,2,3,1,5,6,4,2,3,3,3,3,4,2,5,3,4,2,4,4,5,4,2,4,4,2,4,4,4,4,4,5,4,4,5,5,3,2,2,3,2,2,4,3,1,4,2,4,4,2,4,3,4,3,4,1,3,4,4,4,4,4,4,4,4,4,2,4
"Zurich",1982,1,4,2,4,2,1,0,0,2,NA,36.24,36.43,36.05,47.36669921875,74,3,1,1,2,1,NA,4,2,5,NA,1,NA,4,2,2,1,1,NA,3,1,8,2,1,NA,1,NA,NA,NA,NA,NA,NA,NA,NA,NA,NA,3,3,3,3,2,4,2,3,4,3,3,4,3,3,3,3,3,3,2,3,3,2,2,4,3,2,3,3,2,3,3,3,3,3,3,2,2,3,3,3,3,3,2,3,4,3,3,3,4,4,5,3,3,5,4,3,3,4,4,4,5,4,4,5,5,4,4,4,4,4,4,3,4,4,5,6,4,4,3,5,4,4,4,3,3,2,3,3,3,3,3,3,3,5,5,5,5,5,4,3,4,3,3,3,3,4,4,3,3,3,2,3,3,2,3,3,3,5,4,4,5,5,2,4,4,2,1,1,5,5,1,5,5,4,4,5,2,4,2,4,2,3,5,4,4,4,3,4,4,3,4,4,2,3,3,2,4,4,3,3,4,3,3,3,3,4,4,4,3,3,3,4,4,3,3,3,4,3,3
"Chile",1982,2,7,1,3,2,1,0,1,2,0,36.3,36.4,36.2,33.449996948242,79,2,2,1,1,2,2,4,3,4,1,2,1,2,1,1,NA,1,NA,5,1,8,1,1,NA,1,NA,NA,NA,NA,NA,NA,NA,NA,NA,NA,2,2,3,4,4,2,2,2,2,4,4,3,4,3,4,4,2,2,3,3,4,3,3,4,4,3,4,3,4,1,4,1,2,3,4,3,3,2,3,2,2,2,3,3,2,2,3,4,5,4,2,1,6,6,1,5,2,5,2,1,1,2,6,5,1,7,2,7,1,7,1,1,1,1,1,1,1,1,1,4,6,1,1,5,5,5,5,4,5,4,4,4,4,4,3,3,2,3,3,1,2,4,4,1,1,3,3,1,2,2,4,3,3,2,3,5,6,4,4,4,1,1,1,5,1,5,5,3,2,3,4,2,1,3,2,2,3,2,1,3,1,1,5,4,1,2,1,3,2,3,3,3,2,2,2,4,4,3,5,2,3,4,4,2,3,2,5,2,1,2,1,1,2,1,2,3,3,2,2
"Poland",1982,2,7,1,5,2,1,60,0,2,NA,36.45,36.5,36.4,53.333099365234,82,0,9,1,1,1,NA,1,1,1,1,8,4,5,6,2,1,2,8,6,1,4,2,1,NA,2,"przyjaciele","znajomi","praca","rodzina","inne",4,2,3,4,2,1,3,5,5,4,5,2,4,2,5,5,5,5,2,4,3,5,4,4,4,2,4,5,3,3,5,1,4,2,1,1,2,2,2,2,2,4,2,4,2,4,1,2,1,1,1,2,1,1,1,1,1,1,1,1,1,1,7,1,1,1,1,1,1,1,1,1,7,1,1,1,1,1,1,1,1,1,1,1,7,7,1,1,5,5,5,5,5,5,5,5,5,7,7,6,6,6,6,6,1,1,1,1,1,1,1,1,1,1,1,2,1,1,1,2,2,3,3,2,2,2,2,1,4,2,5,4,2,1,2,2,1,1,1,2,3,4,2,1,2,3,4,4,4,4,4,4,5,5,2,4,5,1,1,1,1,4,4,3,1,3,2,3,4,2,2,1,3,4,4,3,3,2,3,3,3,3,3,3
"Poland",1982,2,1,1,4,2,1,7,4,2,NA,36.55,36.5,36.6,50.63330078125,79,NA,9,1,1,2,2,4,4,4,2,4,4,5,5,2,1,2,8,2,1,1,2,1,NA,1,NA,NA,NA,NA,NA,NA,NA,NA,NA,NA,4,3,4,5,5,5,3,4,1,5,5,5,4,3,3,3,3,4,4,3,3,3,5,3,3,4,3,1,1,1,1,2,5,1,1,1,2,2,2,2,2,1,1,1,1,1,2,1,1,1,1,7,1,1,1,1,1,7,1,1,1,1,5,5,1,1,1,7,1,1,1,1,1,1,1,1,2,1,1,7,7,1,1,5,5,5,5,5,5,5,5,5,2,2,2,2,2,2,2,1,1,1,1,1,1,1,1,1,1,1,1,1,1,1,1,4,6,3,2,2,2,2,4,5,5,1,1,1,5,5,1,5,5,5,5,5,1,5,1,5,3,4,2,5,3,3,1,3,3,3,4,3,1,3,3,1,1,3,3,2,1,1,3,5,2,1,3,5,4,3,3,2,2,1,1,1,3,5,3
"Oxford",1982,2,2,2,4,2,1,0,0,2,NA,36.55,36.4,36.7,51.75,71,1.666666667,5,1,2,1,NA,4,2,5,NA,2,2,6,6,1,NA,2,8,3,1,8,1,1,NA,1,NA,NA,NA,NA,NA,NA,NA,NA,NA,NA,4,2,4,4,2,3,2,4,2,3,4,2,5,2,3,3,1,1,1,1,2,3,1,2,5,1,2,3,4,1,4,1,1,2,2,4,1,1,1,1,1,1,1,1,1,1,1,5,5,5,5,5,5,1,5,5,3,2,3,5,1,5,5,6,1,4,4,7,5,5,5,5,5,6,2,4,5,5,5,7,7,4,3,5,3,5,5,3,3,2,3,3,4,4,4,4,4,4,4,3,3,1,3,1,3,2,2,4,3,1,2,1,3,3,3,2,2,2,2,2,3,3,2,4,4,4,2,4,2,4,4,4,3,1,3,2,4,1,2,4,1,4,5,5,2,5,4,4,3,2,2,2,1,1,1,3,4,3,4,3,1,3,2,2,1,2,1,4,4,3,2,1,4,4,1,1,4,1,1
"Poland",1982,1,6,2,4,2,1,22,10,2,NA,36.65,36.6,36.7,52.59309387207,79,NA,9,1,2,1,NA,3,1,5,1,3,3,8,8,2,8,2,5,6,1,8,2,2,5,2,"Uczniowie","Podopieczni",NA,NA,NA,15,20,NA,NA,NA,4,4,4,3,3,4,3,4,3,4,5,3,5,2,3,3,4,4,4,4,2,4,3,3,4,4,2,3,2,2,4,4,1,3,2,4,3,4,2,3,2,3,3,1,2,1,4,4,4,4,4,4,5,4,4,4,4,4,4,4,4,4,4,2,4,4,4,4,4,4,4,4,4,4,4,4,4,4,4,4,4,4,4,4,4,4,3,4,2,2,4,4,4,6,6,6,7,5,5,2,2,3,2,2,2,3,2,1,2,2,3,2,2,2,2,4,6,6,6,6,6,6,1,4,2,4,3,4,3,3,4,4,3,5,4,3,4,2,2,3,4,4,3,4,4,3,4,3,4,4,3,4,3,4,3,2,2,4,4,4,2,4,3,4,3,2,1,2,4,3,1,4,4,2,3,4,3,3,1
"Zurich",1982,2,7,1,4,2,1,10,0,2,NA,36.8,36.9,36.7,NA,75,-3,1,1,2,1,NA,4,4,4,1,4,2,5,3,1,NA,2,5,3,5,2,3,1,NA,1,NA,NA,NA,NA,NA,NA,NA,NA,NA,NA,3,3,3,4,4,3,2,2,3,4,4,4,4,3,3,3,2,3,2,2,3,2,2,3,4,2,3,2,2,2,4,2,1,2,2,2,4,4,2,4,2,2,2,2,2,1,2,3,2,2,2,2,2,2,2,5,1,5,2,2,2,2,1,3,1,2,1,4,2,2,2,1,2,2,2,1,2,3,1,5,6,2,2,4,4,4,4,3,3,3,4,4,5,4,5,5,4,4,4,2,4,1,3,1,2,2,2,2,2,2,4,2,2,2,2,4,6,6,3,4,5,4,1,4,1,4,1,4,2,2,5,4,2,1,2,3,4,1,2,3,2,4,4,4,4,3,2,3,3,3,3,3,2,2,2,2,2,4,3,2,4,3,2,4,4,2,2,4,4,3,2,4,2,4,4,3,3,3,2
"Poland",1982,2,7,1,3,2,1,3,0,2,NA,37.75,37.4,38.1,52.25,63,0,9,1,1,3,3,4,1,4,1,5,5,8,6,1,NA,2,8,2,1,1,3,1,NA,2,"fitness","rodzice szko?a","rodzice przedszkole","wychowawcy","kancelaria",7,7,7,7,5,4,4,3,5,4,4,3,4,2,4,5,3,4,3,3,4,4,4,4,3,3,4,3,3,4,4,3,1,3,3,3,1,4,1,1,2,4,4,4,3,4,1,1,1,2,1,4,4,4,3,5,4,5,2,2,4,3,5,3,2,2,2,6,5,2,2,2,3,2,2,2,2,2,2,2,2,3,2,2,6,6,2,3,5,5,5,5,5,5,5,5,5,7,4,4,4,4,4,4,1,1,1,1,1,3,2,2,1,1,1,2,1,1,2,1,5,7,6,5,5,1,1,2,4,2,5,4,2,3,3,3,4,2,2,3,4,4,2,2,3,2,4,3,3,4,5,3,4,1,4,4,1,1,5,1,1,3,4,4,3,2,1,4,5,3,2,3,5,3,4,4,5,3,4,4,4,2,2,4
"Kassel",1983,1,3,2,2,2,1,0,2,2,NA,35.4,35.3,35.5,51.249603271484,79,0,1,1,2,1,NA,4,4,5,NA,6,1,2,2,1,NA,1,NA,3,1,8,1,1,NA,1,NA,NA,NA,NA,NA,NA,NA,NA,NA,NA,3,1,4,4,2,4,1,2,3,1,2,4,4,2,3,5,3,4,4,4,4,4,4,5,5,3,3,4,4,2,4,4,2,3,2,4,3,4,4,4,1,1,1,1,2,1,1,1,1,1,1,1,1,1,1,7,1,7,1,1,1,1,1,1,1,1,7,1,7,1,1,1,7,7,7,7,7,7,1,7,7,7,7,1,1,1,1,1,1,2,2,3,5,7,7,7,7,7,7,2,1,1,2,2,4,5,1,2,2,1,2,2,3,4,3,5,3,5,2,3,2,3,4,4,2,5,2,4,4,3,5,5,1,5,5,2,4,3,3,3,3,3,3,4,4,3,3,3,2,3,3,3,3,4,3,1,4,4,3,3,3,3,3,3,3,4,1,3,4,4,3,4,3,5,3,3,4,1,1
"METU",1983,2,7,1,4,2,1,0,0,2,NA,35.7,35,36.4,39.911697387695,0,3,3,2,1,1,NA,2,2,4,4,7,7,3,3,1,NA,2,8,3,1,8,1,1,NA,1,NA,NA,NA,NA,NA,NA,NA,NA,NA,NA,3,3,4,3,3,3,3,2,2,4,4,3,4,3,3,4,3,3,3,3,2,3,3,4,4,2,3,3,3,2,3,3,2,3,3,3,5,3,5,4,5,1,1,1,4,2,5,6,5,1,5,5,3,3,2,3,2,3,2,1,2,5,5,4,1,6,2,2,2,6,1,2,2,2,2,2,2,2,2,2,2,2,2,5,5,5,5,5,5,5,5,5,6,5,5,5,5,4,4,2,2,2,2,2,3,3,2,2,2,2,2,1,2,2,2,5,4,5,1,4,1,1,2,2,3,4,3,3,2,4,2,4,4,2,3,4,4,2,4,3,2,4,4,4,2,4,3,5,5,3,5,5,1,1,1,2,2,3,2,1,4,4,4,3,4,4,3,4,4,5,5,5,1,5,5,5,3,4,3
"METU",1983,2,4,2,3,2,1,NA,0,2,NA,36,36,36,39.923004150391,49,6,3,2,2,1,NA,4,2,5,NA,5,4,5,5,1,NA,1,NA,3,1,8,2,1,NA,2,"G??men Dayan??ma A??",NA,NA,NA,NA,2,NA,NA,NA,NA,2,4,3,3,2,2,3,1,1,4,3,3,4,4,3,3,3,3,3,3,3,3,3,5,5,3,3,4,4,4,5,4,1,3,1,2,2,4,4,2,4,3,2,4,4,4,4,3,2,2,2,7,6,2,5,3,2,6,5,5,2,5,5,5,1,2,1,2,2,1,1,1,1,1,2,2,2,1,1,2,3,1,2,2,2,3,2,2,2,2,2,3,7,6,5,5,7,6,7,3,2,3,2,3,4,4,2,1,4,3,3,2,2,3,1,5,7,6,1,4,3,2,2,2,3,5,4,1,2,2,2,4,3,2,4,4,4,2,3,4,4,4,3,3,5,5,5,5,1,4,4,1,1,5,2,2,4,5,3,4,2,4,2,4,3,3,2,3,4,5,5,4,1,3,5,2,2,2,4
"Poland",1983,2,7,1,4,2,1,12,0,2,NA,36.215,36.31,36.12,52.59309387207,85,NA,9,1,1,1,NA,3,1,5,1,2,2,2,2,1,NA,2,2,3,1,2,3,1,NA,1,NA,NA,NA,NA,NA,NA,NA,NA,NA,NA,4,2,5,4,2,5,4,4,1,2,5,1,4,1,3,2,4,5,5,5,2,5,4,2,2,4,1,3,4,2,3,3,2,2,2,2,2,2,2,2,2,2,2,2,4,2,2,1,1,2,2,5,1,1,4,7,1,7,1,1,1,7,5,6,1,2,3,7,1,1,5,1,1,6,4,3,4,4,1,1,7,1,2,1,1,1,1,1,1,1,1,1,2,5,4,4,5,5,5,3,3,3,2,3,3,2,4,3,3,2,2,4,2,4,2,4,5,7,4,4,4,4,1,4,2,5,3,2,2,4,4,4,1,2,2,4,4,2,2,2,4,4,4,2,4,4,4,4,1,2,4,1,1,1,1,1,3,3,1,5,4,3,2,2,2,4,1,2,4,2,2,4,4,4,4,4,4,4,4
"Poland",1983,2,5,1,4,2,1,4,0,2,NA,36.45,36.4,36.5,54.350006103516,82,3,9,1,1,2,2,3,3,1,1,3,3,3,3,1,NA,2,8,6,1,3,1,1,NA,1,NA,NA,NA,NA,NA,NA,NA,NA,NA,NA,3,4,2,5,5,3,3,2,2,4,4,3,5,2,3,4,4,3,4,4,2,4,3,3,5,4,3,3,4,3,2,4,2,1,2,5,5,4,5,5,5,1,2,1,2,2,5,2,2,2,2,5,4,1,5,2,2,6,5,1,1,1,5,4,2,2,2,5,2,1,3,4,5,5,2,2,3,3,2,5,5,2,2,5,5,5,5,5,5,4,5,5,7,5,5,4,6,5,5,3,3,1,3,1,1,4,1,2,2,2,2,2,1,2,2,4,3,5,1,3,1,3,2,4,2,5,3,3,2,2,4,4,2,2,2,3,5,2,5,3,1,3,4,5,4,4,2,4,5,4,5,4,3,3,2,1,2,4,2,2,2,3,2,4,3,1,2,4,4,2,1,3,2,4,4,4,3,2,3
"Poland",1983,1,7,2,5,2,1,32,0,2,NA,36.6,37,36.2,52.416702270508,86,3,9,1,2,1,NA,4,4,5,1,6,5,5,4,2,8,2,8,6,8,8,1,2,8,2,"studenci","nauczyciele","uczniowie","oaza","ruch charyzmatyczny",20,24,180,21,18,3,5,3,5,5,5,4,3,3,5,5,5,5,2,3,3,4,4,4,4,3,4,4,3,3,4,2,2,2,2,5,2,1,2,1,4,4,1,2,2,2,1,1,1,2,2,1,3,2,2,2,3,2,3,2,3,2,6,2,2,2,2,3,2,2,2,3,2,3,2,5,2,3,2,3,3,3,3,2,6,6,2,3,5,4,4,5,5,5,3,4,4,1,3,1,2,2,2,1,1,2,1,1,4,2,2,1,1,1,1,2,2,1,3,3,3,3,2,3,3,1,2,2,4,2,4,2,4,3,2,4,4,2,2,2,2,4,2,4,2,3,4,2,3,4,4,4,3,4,4,3,4,3,2,3,3,2,4,4,2,2,4,2,4,2,3,2,4,2,2,4,2,2,2,4,2,4,4,2
"Zurich",1983,2,7,1,3,2,1,6,2,1,0.25,36.6,36.5,36.7,47.36669921875,76,4,1,1,2,1,NA,4,4,4,2,4,4,3,2,1,NA,2,2,3,1,8,1,1,NA,1,NA,NA,NA,NA,NA,NA,NA,NA,NA,NA,4,3,3,2,3,4,2,2,2,3,3,3,4,3,3,3,3,2,2,3,3,3,3,3,4,3,3,3,4,4,3,4,2,4,2,4,4,3,4,4,3,2,2,2,2,3,3,2,3,2,2,2,4,2,6,2,2,2,2,2,2,2,2,5,2,2,2,2,2,2,2,2,2,2,2,2,2,2,2,2,4,2,2,4,4,4,4,4,4,3,4,4,7,6,6,6,6,6,6,2,2,2,2,2,2,3,2,2,2,2,4,2,2,3,2,5,8,5,5,5,5,5,3,2,4,4,3,2,4,2,3,4,3,3,2,3,2,4,4,4,3,4,4,2,4,5,5,3,3,3,4,4,2,2,3,4,2,3,2,4,2,3,2,4,2,2,2,4,4,4,4,4,2,3,4,3,4,2,3
"Kassel",1983,1,7,1,2,2,1,1,0,2,NA,36.7,36.5,36.9,52.516693115234,80,7,1,1,1,1,NA,4,4,4,1,2,1,7,4,2,1,1,NA,2,1,8,3,1,NA,1,NA,NA,NA,NA,NA,NA,NA,NA,NA,NA,3,3,5,3,2,3,2,3,3,4,4,2,5,2,3,5,2,2,2,2,3,2,2,2,2,2,3,3,4,3,4,2,2,1,1,4,2,3,2,3,2,1,1,1,1,2,2,4,3,2,2,2,2,2,2,2,2,6,5,1,2,5,2,1,1,5,2,2,2,3,2,2,2,6,2,2,2,3,2,3,3,2,2,5,4,4,5,4,4,4,5,4,3,4,5,4,4,5,5,1,2,2,2,2,2,2,1,2,2,2,2,1,2,2,2,5,6,5,4,4,3,3,2,2,2,4,3,3,2,2,3,2,3,2,2,3,4,1,4,4,4,5,4,4,4,5,4,3,2,4,3,1,2,4,2,2,3,4,3,4,2,3,2,4,1,3,2,3,4,4,4,4,2,2,4,3,3,2,2
"Chile",1983,2,7,1,5,2,1,1,0,1,NA,36.8,36.8,36.8,33.449996948242,59,2,2,1,1,1,NA,2,2,4,1,6,4,4,4,1,NA,2,8,1,NA,NA,1,1,NA,2,"Doctorado",NA,NA,NA,NA,10,NA,NA,NA,NA,2,5,5,5,4,5,5,4,5,4,1,5,5,2,3,3,1,1,1,1,2,1,1,3,5,1,1,4,3,3,3,4,2,4,2,4,4,4,4,4,4,1,1,1,4,3,4,3,3,2,6,1,6,2,3,6,1,5,2,4,1,1,6,2,1,1,2,3,1,2,2,2,1,2,2,2,1,1,2,3,2,1,2,4,4,4,4,4,5,2,4,4,1,1,2,1,1,2,2,1,5,1,1,1,1,2,1,1,1,2,4,1,2,3,2,4,4,4,3,5,1,5,2,4,4,2,2,2,4,4,2,5,3,3,5,4,1,4,2,4,2,2,2,2,4,4,3,4,3,4,4,3,1,3,2,2,4,4,4,1,2,2,4,4,4,3,4,4,4,3,3,4,2,3,4,3,3,4,1
"Poland",1983,2,7,1,3,2,1,0,5,2,NA,37.1,36.9,37.3,53.600006103516,63,7,9,1,4,2,2,4,4,4,1,4,3,2,2,2,1,2,8,6,2,8,2,1,NA,1,NA,NA,NA,NA,NA,NA,NA,NA,NA,NA,1,1,5,4,4,2,1,1,1,3,2,1,4,4,3,4,3,3,3,2,3,3,2,4,4,3,4,2,2,3,3,2,5,3,2,3,4,4,4,4,4,1,2,1,1,1,4,6,7,5,5,7,6,7,6,7,2,1,7,6,6,7,4,6,2,3,3,5,2,4,3,5,4,3,1,1,5,3,3,5,6,3,2,5,4,4,4,4,4,3,4,4,6,6,6,6,6,6,6,2,1,3,2,2,4,4,2,2,2,3,2,1,1,3,2,5,7,5,2,5,7,1,1,4,2,4,2,4,1,2,4,4,4,1,1,4,4,3,4,4,2,4,4,5,3,5,3,4,3,3,4,2,1,5,3,2,4,4,3,3,2,4,4,4,3,2,1,2,4,4,3,3,4,4,4,3,3,1,4
"Oslo",1984,2,7,1,4,2,1,0,0,2,NA,35.9,35.9,35.9,NA,76,-6,4,1,1,2,1,4,1,3,1,3,2,5,2,1,NA,2,2,1,NA,NA,1,1,NA,1,NA,NA,NA,NA,NA,NA,NA,NA,NA,NA,3,2,3,3,5,3,3,3,2,4,4,4,3,4,3,2,2,2,2,3,4,3,2,3,4,2,2,3,3,1,4,1,4,5,1,5,2,4,2,4,2,2,2,2,2,4,4,2,5,3,3,7,5,1,2,2,5,2,7,2,5,1,4,2,2,6,2,3,1,2,2,2,2,1,2,3,5,6,2,3,5,1,6,3,3,4,2,2,3,4,3,2,4,3,2,2,3,2,2,1,1,1,1,1,1,1,1,1,1,2,1,1,2,1,2,4,6,6,1,4,3,5,3,3,3,5,2,2,1,2,3,4,4,3,2,4,4,2,2,2,4,4,3,2,4,5,3,3,4,4,4,4,2,2,2,1,1,1,1,2,4,2,1,4,2,1,2,4,4,4,4,3,1,2,4,3,2,3,3
"Oslo",1984,2,7,1,3,2,1,0,0,2,NA,35.95,36,35.9,60.391494750977,80,-7,4,1,3,3,3,4,4,5,NA,3,3,6,3,1,NA,2,5,1,NA,NA,2,1,NA,1,NA,NA,NA,NA,NA,NA,NA,NA,NA,NA,4,3,4,4,4,4,4,4,4,2,4,5,5,2,3,4,2,3,2,2,3,2,2,3,5,2,3,2,2,2,2,3,2,2,2,2,4,4,2,4,2,2,2,2,2,2,2,5,5,5,5,5,5,6,5,5,4,6,6,2,2,6,7,5,6,3,3,6,5,5,3,5,5,6,2,3,2,2,6,5,5,6,6,4,4,4,4,4,3,4,4,4,7,7,7,7,7,7,7,3,2,3,2,3,3,3,2,2,2,3,2,2,2,2,2,5,7,6,3,4,4,6,1,4,2,4,2,4,2,4,4,4,4,2,2,4,4,2,4,4,2,3,4,3,3,3,3,3,3,3,4,3,2,4,3,4,4,5,4,2,2,4,4,2,4,2,2,3,4,3,2,3,2,5,3,3,4,2,3
"Kassel",1984,1,7,1,4,2,1,8,0,2,NA,36,36,36,51.033294677734,NA,NA,1,1,1,1,NA,4,2,4,1,2,2,6,5,1,NA,1,NA,2,3,8,3,1,NA,1,NA,NA,NA,NA,NA,NA,NA,NA,NA,NA,2,2,2,3,2,3,2,2,3,3,4,2,3,3,4,3,2,2,2,3,3,2,3,4,3,3,3,4,4,2,5,1,1,1,1,4,1,4,1,4,1,1,2,1,4,1,1,3,3,4,4,4,3,2,4,5,5,3,5,3,2,3,4,3,3,5,2,5,4,4,4,4,3,3,5,4,3,3,2,6,6,4,5,3,3,3,2,3,2,4,2,2,3,5,5,5,4,4,3,2,4,1,5,1,1,2,4,3,2,1,2,1,3,5,5,4,5,2,1,3,2,1,4,2,2,4,1,4,1,1,3,4,1,4,3,4,2,2,1,1,1,4,3,3,4,1,4,3,2,2,3,2,3,3,2,1,5,1,3,2,2,3,5,2,2,1,1,3,4,1,3,1,3,1,1,1,1,3,1
"Kassel",1984,2,3,1,4,2,1,2,0,2,NA,36.1,36,36.2,51.249603271484,86,5,1,1,1,1,NA,4,4,2,2,8,4,4,4,1,NA,2,3,3,2,8,1,1,NA,1,NA,NA,NA,NA,NA,NA,NA,NA,NA,NA,2,2,4,2,2,4,3,4,2,3,3,1,2,2,4,3,3,3,3,3,2,4,2,4,3,2,2,4,4,2,5,4,2,5,4,4,5,5,4,2,4,2,2,4,2,2,4,2,2,1,3,2,2,2,3,2,1,2,2,3,3,4,3,2,1,3,5,2,3,5,4,3,4,4,3,3,5,3,3,4,2,3,3,5,4,3,4,5,5,5,5,5,3,4,3,3,3,3,4,2,2,2,2,2,2,4,4,2,4,4,3,2,2,4,3,3,4,2,2,4,5,5,2,2,4,5,4,2,2,3,3,4,4,4,1,4,3,2,2,2,2,4,4,5,4,3,3,3,3,3,2,2,3,2,2,1,2,2,4,1,3,4,2,4,4,2,2,5,5,4,3,3,3,4,3,4,3,4,2
"Chile",1984,1,7,1,4,2,1,1,2,1,NA,36.15,36,36.3,33.449996948242,61,6,2,1,1,2,2,4,1,3,1,4,1,8,5,1,NA,1,NA,5,1,8,1,1,NA,2,"Autos",NA,NA,NA,NA,5,NA,NA,NA,NA,2,3,5,3,4,3,1,4,3,2,5,2,5,2,3,3,1,2,3,1,2,2,2,4,4,2,3,2,3,2,5,2,3,2,5,5,4,3,3,5,3,2,1,3,3,2,3,1,1,1,1,4,1,1,1,3,1,1,1,1,1,1,2,5,1,6,6,1,4,6,4,2,4,5,7,2,6,4,3,7,7,7,7,3,4,4,5,5,3,2,3,4,6,7,6,4,6,6,7,1,5,1,5,1,1,1,5,5,1,3,1,1,5,5,5,2,2,1,2,2,3,2,3,3,5,1,1,5,3,1,1,5,5,5,5,5,1,5,3,1,1,1,5,5,5,1,1,3,3,5,1,1,3,3,4,1,1,5,5,1,1,5,5,5,5,1,5,3,5,1,3,3,5,2,1,1,1,4,1
"Chile",1984,1,3,1,4,2,1,1,1,2,0,36.25,36.3,36.2,33.449996948242,79,13,2,1,2,1,NA,4,4,4,1,8,4,8,8,1,NA,2,8,5,8,8,2,1,NA,2,"Banda Musical","Trabajo 1","Trabajo 2","Curso Colegio","Club Toby",5,10,4,15,4,2,2,5,2,1,3,2,5,4,4,5,3,5,2,4,5,2,2,2,2,2,3,3,4,5,1,3,5,4,4,4,1,3,5,4,5,4,4,4,5,4,4,4,3,2,3,4,4,4,2,2,3,6,4,2,5,2,5,4,2,3,2,4,2,2,2,2,2,2,2,2,2,2,6,2,2,5,2,2,5,5,2,3,5,5,5,5,3,3,3,4,4,6,7,7,7,7,7,7,1,2,3,1,2,2,3,2,1,1,2,3,3,1,3,2,4,4,6,3,4,5,4,2,4,4,4,2,2,2,3,3,4,3,5,4,5,5,3,4,3,3,4,5,3,4,3,3,4,4,4,4,4,2,2,3,2,3,5,2,5,1,2,2,4,2,1,1,3,2,1,1,3,3,2,2,2,3,2,2
"Poland",1984,2,6,1,5,2,1,38,14,2,NA,36.3,36.3,36.3,51.75,86,2,9,1,1,3,3,4,4,3,1,3,3,5,3,1,NA,2,6,6,1,1,1,1,NA,2,"angielski","przedszkole",NA,NA,NA,2,3,NA,NA,NA,4,2,4,4,5,4,4,4,2,2,4,3,4,2,3,3,3,4,5,4,2,4,4,2,4,4,1,2,3,4,4,2,1,4,2,2,4,4,4,2,2,1,1,1,4,1,3,2,1,1,2,2,2,1,2,1,2,7,5,2,2,2,6,1,1,2,3,2,2,2,1,1,2,2,3,2,5,2,1,3,2,2,5,5,5,4,5,5,3,2,4,3,3,4,3,3,4,3,2,2,2,1,2,1,2,4,1,3,1,1,3,2,1,3,1,4,6,6,1,6,3,3,1,1,3,5,4,3,1,1,5,4,1,1,2,2,2,1,1,1,1,4,4,3,2,4,3,3,2,2,4,2,2,4,2,1,3,4,3,1,2,2,2,4,4,1,1,3,2,4,3,3,2,2,3,4,3,5,3
"METU",1984,2,6,2,5,2,1,0,0,2,NA,36.45,36.5,36.4,39.911697387695,53,4,3,2,3,1,NA,4,4,5,NA,3,2,6,6,1,NA,2,5,3,1,8,1,1,NA,1,NA,NA,NA,NA,NA,NA,NA,NA,NA,NA,1,5,4,1,1,1,3,1,1,1,4,1,1,4,3,3,3,1,1,3,1,4,1,4,5,2,2,2,2,2,1,4,1,1,2,4,4,4,4,4,4,1,1,1,1,1,4,5,5,5,5,7,7,5,5,7,1,7,5,1,1,1,7,1,1,1,1,1,1,1,1,1,1,1,1,1,1,1,1,3,1,1,4,5,4,5,5,5,5,5,5,2,7,5,4,4,4,5,5,1,1,1,1,1,1,1,1,1,1,1,1,1,1,1,1,5,7,6,1,6,6,1,1,1,2,4,5,5,5,2,5,1,1,1,1,1,5,1,1,1,1,1,2,5,5,3,3,5,4,4,4,4,1,1,1,4,4,5,3,2,1,4,1,5,4,5,1,5,1,5,5,5,1,5,5,3,5,2,2
"METU",1984,1,7,1,2,2,1,0,0,1,20,36.45,36.6,36.3,39.911697387695,64,6,3,2,4,1,NA,4,4,5,NA,8,8,8,1,1,NA,2,8,3,8,8,1,1,NA,1,NA,NA,NA,NA,NA,NA,NA,NA,NA,NA,3,3,4,5,2,4,3,3,4,3,4,4,3,3,3,3,2,3,3,3,3,3,3,3,4,2,3,4,4,4,4,4,3,4,4,4,4,4,4,4,4,1,2,2,4,4,4,2,2,2,2,6,1,4,3,2,2,2,2,2,2,1,2,1,2,6,1,2,2,2,2,1,2,1,1,2,3,2,1,3,5,1,2,5,4,4,4,4,4,2,4,4,4,5,5,5,4,4,4,2,2,1,2,2,3,2,2,2,2,2,2,1,2,2,1,4,6,2,1,1,1,6,4,2,3,5,3,3,4,4,3,4,4,2,3,4,4,3,2,2,3,4,2,2,4,4,4,4,4,3,4,4,2,2,2,2,2,4,3,2,2,3,3,4,2,3,2,4,3,3,4,4,2,4,3,3,3,2,2
"Oxford",1984,2,7,1,5,2,2,0,0,2,NA,36.5,36.3,36.7,51.75,74,2.777777778,5,1,2,1,NA,4,4,5,NA,2,1,6,6,1,NA,2,8,1,NA,NA,3,1,NA,2,"Squash Club",NA,NA,NA,NA,5,NA,NA,NA,NA,4,5,5,5,5,5,4,3,3,5,4,5,5,2,2,3,3,2,2,3,3,2,2,3,4,2,3,4,5,3,5,3,3,4,3,4,4,4,4,4,4,2,2,3,4,3,4,4,4,4,5,4,4,4,5,3,2,2,5,4,2,2,3,4,1,5,3,5,3,3,3,3,3,4,4,3,4,4,4,3,5,3,3,5,5,5,5,5,5,4,5,5,4,3,4,3,3,3,3,2,2,1,2,1,2,2,1,1,2,1,2,1,2,2,2,4,5,5,4,4,4,4,3,3,4,4,2,2,2,3,3,4,2,2,3,3,3,3,4,4,3,2,4,4,4,4,5,4,4,4,3,4,2,1,1,1,3,3,4,4,2,3,3,4,2,1,4,3,2,2,2,4,2,3,3,4,3,2,2
"Poland",1984,2,7,1,3,2,1,1,0,2,NA,36.5,36.4,36.6,53.127105712891,77,-5,9,1,1,2,2,1,1,4,2,3,2,3,2,1,NA,2,6,6,1,5,1,1,NA,1,NA,NA,NA,NA,NA,NA,NA,NA,NA,NA,4,4,4,4,4,4,3,3,3,4,4,3,3,4,3,3,4,4,4,4,3,4,4,2,4,4,2,4,4,4,4,5,4,4,3,4,4,4,4,4,4,2,2,2,3,2,4,4,2,2,3,4,2,5,2,5,2,6,4,2,2,2,5,2,5,2,2,6,2,2,2,2,2,2,3,2,2,3,5,2,6,2,3,4,4,5,5,5,5,5,5,5,2,4,5,4,2,2,2,3,2,2,2,2,4,4,2,3,2,2,2,2,4,3,2,5,5,5,3,3,3,3,4,3,3,4,3,4,2,3,3,3,4,2,3,4,3,2,3,4,2,4,4,4,4,3,3,4,3,4,4,3,2,3,2,2,2,4,3,4,3,3,2,3,2,2,2,3,4,4,4,3,4,2,2,3,3,2,3
"Oxford",1984,1,6,1,2,2,1,1,0,2,NA,36.55,36.2,36.9,51.75,71,1.666666667,5,1,1,1,NA,4,1,4,1,4,1,3,2,1,NA,2,8,1,NA,NA,1,1,NA,1,NA,NA,NA,NA,NA,NA,NA,NA,NA,NA,3,2,3,5,3,4,2,2,3,3,2,2,3,4,4,5,4,4,4,4,4,4,4,4,4,3,4,1,1,1,1,1,1,1,1,1,1,1,1,1,1,1,1,1,1,1,1,2,2,2,2,3,3,1,4,2,5,2,2,3,1,5,2,5,3,5,5,5,5,5,5,5,5,5,4,5,6,5,5,5,5,4,5,4,4,4,4,3,3,3,3,3,6,4,4,3,3,4,3,3,4,2,4,4,3,4,4,4,4,3,2,2,2,4,3,2,2,1,2,1,1,1,3,3,3,4,2,3,2,2,3,5,4,4,4,4,3,2,2,4,1,1,4,5,2,2,1,3,4,3,4,2,3,3,3,1,1,3,2,4,3,3,2,2,2,1,2,3,4,2,2,2,4,4,2,3,3,2,3
"METU",1984,2,2,1,4,2,1,0,0,1,5,36.55,36.7,36.4,39.911697387695,56,4,3,2,1,2,2,4,4,2,2,6,4,5,5,1,NA,2,5,3,1,8,4,2,8,2,"Alternatif Anne",NA,NA,NA,NA,7,NA,NA,NA,NA,3,4,5,4,4,2,4,4,4,4,5,4,3,3,3,3,2,2,2,3,3,2,2,3,5,2,3,2,3,3,3,4,3,2,2,2,4,2,3,4,4,2,2,2,2,1,4,5,2,2,5,5,5,5,2,5,1,6,2,2,4,1,6,5,2,2,2,1,1,1,2,2,1,2,1,1,1,1,2,1,1,2,2,5,5,5,5,5,3,2,5,3,6,6,6,6,6,5,6,2,2,3,2,2,3,2,2,2,3,2,1,2,2,2,3,5,7,7,1,6,6,2,1,2,5,5,3,4,3,2,4,4,4,2,1,4,5,2,5,5,4,4,4,2,4,4,4,5,4,4,5,4,2,3,1,3,5,4,4,3,2,3,3,4,3,4,2,5,4,4,3,4,2,4,5,3,3,3,3
"METU",1984,2,7,1,3,2,1,2,0,2,NA,36.6,36.6,36.6,NA,55,0,3,2,1,3,3,4,4,4,4,8,8,8,8,1,NA,1,NA,3,1,8,4,1,NA,2,"ODT? T¨¹rk Halk Blimi Toplulu?u",NA,NA,NA,NA,7,NA,NA,NA,NA,3,4,4,4,3,4,2,1,2,4,3,4,4,2,4,3,3,3,2,2,3,3,3,4,3,3,2,3,3,3,3,2,2,2,2,3,4,2,3,3,3,2,1,1,1,1,3,4,2,2,4,5,5,5,3,3,2,3,2,4,2,2,5,1,2,2,2,4,4,3,2,2,4,3,2,2,2,2,2,2,3,2,2,4,5,4,5,5,3,3,3,3,7,5,5,5,5,6,6,2,2,1,2,2,1,3,2,2,2,2,2,3,2,2,2,5,7,5,2,6,5,2,3,2,3,4,3,2,4,4,2,4,4,3,4,4,3,4,2,3,3,3,2,3,4,3,4,5,4,3,4,4,1,2,2,2,2,3,3,2,2,3,4,3,3,4,3,4,3,4,4,4,2,3,4,2,2,2,4
"Chile",1984,1,7,1,3,2,1,9,0,1,NA,36.75,36.8,36.7,33.449996948242,64,10,2,1,2,1,NA,4,4,4,1,1,NA,8,8,1,NA,1,NA,5,1,8,1,1,NA,2,"Trabajo","Colegio",NA,NA,NA,7,4,NA,NA,NA,4,4,3,5,3,4,3,3,4,3,4,5,5,3,3,3,2,3,2,2,3,2,3,2,4,2,3,4,4,3,4,3,3,3,2,3,4,2,4,4,4,2,2,2,2,2,4,2,2,2,6,2,6,2,2,2,2,3,2,2,2,2,4,2,2,2,2,4,2,2,2,2,2,2,2,2,2,2,3,6,6,2,2,5,5,5,5,5,4,2,5,5,4,4,4,3,3,2,3,2,2,2,3,2,2,1,2,3,2,2,1,2,2,3,2,3,3,3,3,3,3,3,2,4,2,4,2,2,2,4,2,5,4,4,2,4,4,2,2,4,3,4,4,2,4,3,4,4,4,3,4,3,2,2,3,2,4,4,3,4,2,2,4,3,3,2,3,4,3,2,2,4,4,4,4,4,4,3,2
"Poland",1984,2,7,1,4,2,1,2,2,1,4,37.1,37,37.2,52.25,83,1,9,1,1,1,NA,4,4,2,2,6,1,6,3,2,1,2,8,3,1,8,1,1,NA,1,NA,NA,NA,NA,NA,NA,NA,NA,NA,NA,4,3,3,5,5,5,2,3,3,5,5,5,5,2,2,3,5,5,5,4,2,5,4,3,4,4,2,1,1,1,1,1,2,1,1,1,2,2,2,2,2,1,1,1,2,1,2,2,1,1,2,4,4,2,2,2,2,6,2,2,2,2,4,2,2,2,2,2,2,3,2,2,2,2,2,2,2,2,2,4,4,2,2,5,5,5,5,5,5,5,5,5,4,5,5,5,4,4,4,2,2,2,2,2,4,4,2,3,2,2,4,2,1,2,1,4,6,5,4,3,3,2,2,3,2,4,4,2,2,2,4,2,2,2,2,2,2,2,4,4,2,4,5,5,4,4,3,4,4,4,4,4,2,2,3,1,1,5,1,2,2,3,2,3,3,3,2,4,4,3,3,3,4,4,4,4,4,2,4
"Zurich",1984,2,7,2,4,2,1,3,3,2,NA,37.5,37,38,NA,78,9,1,1,5,8,8,3,2,2,4,3,1,1,1,1,NA,1,NA,1,NA,NA,1,1,NA,1,NA,NA,NA,NA,NA,NA,NA,NA,NA,NA,5,1,1,1,1,5,1,5,1,1,5,1,1,5,5,5,1,1,1,1,5,1,1,5,5,1,5,5,5,5,5,5,5,5,5,5,5,5,5,5,5,5,5,5,5,5,5,2,2,2,1,2,2,1,1,7,2,6,3,3,2,1,2,2,1,3,6,2,7,2,1,1,6,6,7,5,6,5,2,6,7,7,6,5,5,5,5,5,5,5,5,5,4,7,7,7,7,7,7,5,5,5,1,5,5,5,5,5,5,5,1,5,1,5,1,1,1,7,8,8,8,8,2,2,2,2,2,2,2,2,2,5,5,5,5,5,5,5,5,5,5,5,5,5,5,5,5,5,5,5,5,5,5,5,5,5,5,5,5,5,5,5,5,5,5,5,5,2,2,2,2,2,2,2,2,2,3,3,3
"Oxford",1985,1,5,2,3,2,1,1,0,2,NA,35.65,35.2,36.1,51.75,89,-1.666666667,5,1,2,1,NA,4,4,5,NA,2,1,3,3,1,NA,2,5,1,NA,NA,3,1,NA,2,"Choir",NA,NA,NA,NA,5,NA,NA,NA,NA,3,3,2,3,3,4,3,2,3,4,3,2,2,3,3,4,3,3,3,2,3,3,3,3,4,3,3,4,3,1,4,4,1,3,3,4,3,2,4,3,4,3,4,2,4,3,3,5,3,2,3,5,5,3,5,3,2,5,3,3,5,3,2,3,5,5,3,5,1,1,4,5,3,4,2,3,3,2,2,3,3,3,4,4,3,3,3,4,3,3,3,3,5,5,5,5,5,5,5,2,3,2,3,1,2,2,3,4,2,1,4,1,3,3,5,4,6,5,4,3,3,5,3,3,4,4,2,3,2,3,4,5,3,3,4,4,4,2,4,4,2,3,2,4,4,4,4,4,4,4,5,4,2,2,2,2,3,3,2,3,2,3,2,2,2,4,2,4,4,4,4,4,3,5,3,2,2,2,1
"Oxford",1985,1,7,1,4,2,2,0,0.5,2,NA,35.75,35.3,36.2,51.75,86,0,5,1,1,1,NA,4,1,4,1,1,NA,1,1,1,NA,1,NA,3,1,7,1,1,NA,1,NA,NA,NA,NA,NA,NA,NA,NA,NA,NA,3,4,1,3,2,3,2,2,1,4,2,3,4,2,2,4,3,3,3,2,3,2,2,2,4,1,2,1,1,1,3,2,1,1,1,3,2,2,1,2,1,1,1,1,1,2,1,5,2,2,2,7,3,2,2,2,2,2,2,2,4,5,1,5,2,3,3,3,3,2,2,2,2,2,3,2,4,2,2,3,3,2,4,5,5,4,5,4,2,1,3,1,5,3,4,4,5,5,5,2,3,1,4,1,1,2,2,2,2,2,1,4,2,4,2,4,6,5,3,3,2,4,2,4,2,5,3,4,2,3,3,5,4,2,4,5,5,1,3,4,2,3,5,2,4,4,3,4,2,3,3,2,2,4,3,2,1,2,3,3,1,2,2,2,2,1,2,3,3,2,2,1,4,2,2,4,3,2,4
"Bamberg",1985,1,7,1,5,2,1,0,1,2,NA,36.055,36.08,36.03,49.440307617188,79,9,1,1,1,2,2,4,4,2,2,6,4,5,3,2,1,2,1,3,8,5,1,2,1,1,NA,NA,NA,NA,NA,NA,NA,NA,NA,NA,4,1,4,1,1,4,1,4,1,2,3,1,3,2,5,5,3,1,3,4,5,4,4,5,4,4,5,1,2,4,2,3,2,2,2,2,4,4,4,3,4,1,1,1,1,1,4,5,2,1,2,1,2,1,2,1,1,2,2,2,2,3,1,1,1,2,1,4,2,5,1,2,4,6,1,1,1,1,1,2,2,2,1,5,5,5,5,5,5,4,5,5,7,7,6,6,6,6,7,4,3,1,4,3,4,4,2,2,4,4,2,2,2,3,2,5,6,2,2,1,1,5,2,4,3,3,1,1,2,4,2,5,4,1,4,4,2,4,1,1,2,4,5,5,4,2,2,4,3,3,2,2,2,2,2,1,5,4,2,4,2,3,4,3,4,1,4,5,1,1,1,2,4,1,1,1,1,2,1
"METU",1985,2,6,1,3,2,1,1,0,1,25,36.1,36.3,35.9,39.911697387695,74,12,3,2,4,1,NA,4,4,4,2,4,2,5,3,1,NA,1,NA,3,1,5,1,1,NA,1,NA,NA,NA,NA,NA,NA,NA,NA,NA,NA,3,3,4,4,2,4,2,2,2,2,5,3,4,2,2,3,2,2,2,2,3,2,2,2,3,3,3,1,1,1,1,3,1,1,1,1,2,2,2,2,2,1,1,1,1,1,2,5,1,1,1,4,3,1,1,2,1,2,1,1,1,1,5,1,1,7,2,1,1,1,7,2,2,1,1,1,2,1,1,1,1,1,2,5,3,5,4,1,4,1,3,1,5,5,4,4,5,5,5,1,1,1,1,1,2,2,1,2,1,1,1,1,3,3,2,4,4,4,3,3,1,1,2,2,2,2,5,4,2,2,2,4,2,1,3,1,1,1,5,4,4,4,4,3,4,5,5,4,3,3,4,3,3,4,4,2,4,4,2,3,2,3,2,5,4,2,1,4,4,5,3,4,1,3,4,1,1,5,1
"Poland",1985,1,7,1,4,2,1,8,0,2,NA,36.15,36.2,36.1,52.233306884766,70,1,9,1,1,3,3,4,4,4,2,8,3,3,2,1,NA,2,8,6,8,8,2,1,NA,1,NA,NA,NA,NA,NA,NA,NA,NA,NA,NA,3,3,4,3,3,4,2,2,2,3,4,2,4,2,5,4,3,4,4,4,3,3,4,5,4,4,3,4,4,3,4,4,2,2,2,4,4,4,4,4,4,2,2,2,4,4,4,2,2,2,2,6,5,2,5,2,2,6,2,2,2,2,5,6,2,2,1,6,2,2,2,2,2,2,1,1,1,1,2,6,6,2,1,5,5,5,5,5,5,5,5,3,3,2,2,3,4,2,2,2,2,2,2,2,2,1,2,2,2,2,1,2,1,3,1,4,5,5,2,4,4,4,3,2,3,4,4,2,2,4,2,2,2,2,4,3,3,4,4,3,2,4,3,2,3,4,2,4,4,4,4,4,2,2,2,1,1,4,2,2,2,4,4,4,4,2,3,4,4,2,3,1,4,2,2,4,2,2,2
"Oslo",1985,1,1,1,5,2,1,NA,NA,2,NA,36.25,36.2,36.3,59.267501831055,92,1,4,1,1,5,5,4,4,4,1,5,5,1,1,2,2,1,NA,3,1,8,2,1,NA,1,NA,NA,NA,NA,NA,NA,NA,NA,NA,NA,5,5,4,4,5,2,2,5,4,4,4,5,4,1,2,3,2,1,1,2,3,2,2,3,4,1,2,2,2,1,1,2,1,2,2,3,3,3,3,2,2,1,1,1,1,1,3,2,2,2,2,4,2,2,3,6,1,2,2,4,2,2,3,1,2,2,2,4,2,2,2,2,2,1,4,6,2,1,1,2,2,2,2,5,5,5,5,5,3,2,2,2,3,2,2,2,3,3,4,5,2,1,2,2,1,1,3,2,1,1,3,4,2,3,1,5,5,6,2,3,1,2,4,2,3,4,2,3,2,1,1,4,2,2,1,3,4,2,3,4,3,3,3,2,4,4,3,3,3,3,3,2,2,2,2,1,2,4,4,2,3,2,2,2,2,2,3,3,4,2,3,2,4,2,2,3,2,4,2
"VCU",1985,2,6,2,3,2,1,0,0,1,2,36.25,36,36.5,37.552200317383,94,13.33333333,5,1,3,1,NA,4,4,5,NA,5,2,6,6,1,NA,2,5,3,1,6,3,2,3,1,NA,NA,NA,NA,NA,NA,NA,NA,NA,NA,4,4,4,5,4,3,3,3,4,5,4,4,4,3,2,4,3,2,2,2,2,2,2,2,4,2,2,2,2,2,3,2,2,2,2,3,3,2,2,3,2,1,1,1,2,2,2,2,2,2,2,2,2,2,2,2,2,2,2,2,2,2,3,2,2,2,2,2,2,2,2,2,2,2,2,2,2,1,2,2,2,2,3,4,4,4,4,4,4,4,4,3,4,4,4,4,4,3,3,2,2,2,2,2,2,3,2,2,2,2,3,2,2,2,1,5,8,6,6,5,6,7,1,1,1,5,5,5,2,3,5,1,1,1,1,2,4,1,4,2,3,3,4,2,4,4,4,4,4,4,4,4,2,2,3,4,4,4,3,3,2,4,2,4,3,2,2,3,4,2,2,4,2,4,3,4,3,2,2
"Kassel",1985,2,7,2,3,2,1,0,0,2,NA,36.25,36.1,36.4,51.316696166992,71,1,1,1,2,1,NA,4,2,4,1,6,3,6,4,1,NA,2,8,1,NA,NA,3,1,NA,2,"Tanzgruppe","Lerngruppe Uni","Uni Sportgruppe",NA,NA,3,2,2,NA,NA,4,4,3,5,5,4,3,2,3,3,4,5,4,1,3,4,3,2,2,2,2,2,1,2,4,3,2,2,4,4,4,2,1,3,1,4,3,2,1,3,2,1,4,3,3,1,4,3,5,2,2,5,4,2,2,7,4,7,2,1,1,1,1,1,5,2,2,6,3,3,3,1,2,3,2,4,4,2,3,7,6,3,3,4,2,4,4,2,1,3,5,4,2,2,4,2,2,2,1,1,2,1,2,2,2,2,1,1,2,1,2,2,2,2,1,4,5,6,3,4,4,4,3,2,2,4,1,3,2,2,3,4,3,1,2,4,3,2,3,4,2,4,2,3,4,4,4,3,2,3,3,1,2,5,3,2,4,3,3,3,2,1,3,2,2,2,2,2,4,2,1,5,4,4,4,4,3,2,2
"VCU",1985,2,7,1,4,2,1,4,0,2,NA,36.38888889,36.33333333,36.44444444,39.185699462891,53,8.888888889,5,1,1,1,NA,4,4,4,4,4,2,6,2,1,NA,2,1,3,5,5,1,1,NA,1,NA,NA,NA,NA,NA,NA,NA,NA,NA,NA,4,4,4,2,3,2,2,3,3,1,4,5,5,2,2,4,2,2,2,2,2,2,3,2,4,3,3,1,5,1,4,2,1,1,1,4,2,1,1,2,1,1,1,1,1,1,1,1,1,1,1,1,1,1,1,1,1,1,1,1,1,1,1,1,1,1,1,1,1,1,1,7,1,1,1,2,1,1,1,1,1,1,1,5,4,4,4,4,4,4,3,3,2,3,3,3,3,2,2,1,1,1,1,1,1,1,1,1,1,1,2,3,2,1,1,4,5,3,2,2,2,2,2,2,4,4,4,4,3,2,3,2,3,2,2,3,3,2,3,4,3,2,4,4,3,3,3,3,3,4,4,4,1,1,1,2,3,2,3,2,2,3,2,4,2,4,1,5,4,4,3,3,3,4,2,2,3,3,2
"Poland",1985,2,7,1,4,2,1,8,NA,2,NA,36.4,36.5,36.3,52.233306884766,83,1,9,1,1,1,NA,3,3,4,2,8,4,5,5,1,NA,2,4,3,1,1,3,1,NA,2,"klub filmowy",NA,NA,NA,NA,3,NA,NA,NA,NA,3,5,5,4,4,5,2,4,4,3,5,5,5,4,3,3,4,4,4,3,3,3,3,3,4,5,3,2,1,1,2,1,2,3,2,2,4,4,4,1,4,1,1,1,1,2,3,2,3,4,5,3,5,4,5,4,2,5,4,1,2,2,4,4,4,4,1,6,2,4,3,4,4,3,2,3,6,2,4,6,6,6,2,5,5,5,5,5,4,4,4,4,6,4,2,2,4,4,4,3,2,2,2,3,2,1,2,3,1,2,2,2,1,4,2,5,7,5,5,5,3,2,2,4,2,4,4,3,4,2,2,4,3,2,2,4,3,2,4,4,3,4,4,4,4,4,4,4,4,2,4,4,2,2,1,1,3,3,2,2,2,4,4,4,4,4,3,4,4,4,4,4,3,4,4,4,4,3,4
"Poland",1985,2,7,1,4,2,1,9,1,2,NA,36.445,36.61,36.28,52.25,70,4,9,1,1,2,2,2,2,4,4,4,2,7,4,1,NA,2,8,6,1,2,2,1,NA,1,NA,NA,NA,NA,NA,NA,NA,NA,NA,NA,3,4,4,4,4,4,2,1,3,3,3,4,4,2,3,3,4,4,4,4,3,4,3,3,4,4,3,4,4,4,4,4,2,2,4,4,5,4,5,4,5,1,2,4,4,3,5,2,1,1,2,2,3,1,1,1,2,7,2,2,1,2,6,5,1,1,1,2,1,1,2,1,1,2,2,2,6,2,2,2,2,1,2,5,5,5,5,5,5,4,5,5,4,4,3,4,5,3,3,3,2,4,2,2,3,2,2,1,2,1,3,2,1,2,2,4,7,5,3,3,3,2,1,4,2,4,2,4,2,2,4,4,2,2,3,4,4,2,4,2,3,4,4,4,4,4,3,4,2,3,4,2,1,4,2,2,2,4,2,1,2,2,2,4,2,2,4,4,2,5,4,2,2,4,5,4,2,4,2
"Poland",1985,2,6,2,4,2,1,7,2,1,NA,36.45,36.4,36.5,54.5,85,0,9,1,4,1,NA,4,4,5,1,3,2,5,4,1,NA,2,8,6,8,8,5,1,NA,2,"pracownicy","znajomi","rozina","przyjaciele",NA,6,5,10,4,NA,4,2,5,5,5,5,1,5,5,5,5,5,2,3,3,3,4,4,5,4,2,4,4,3,5,4,1,2,2,2,2,2,1,2,2,2,4,2,3,3,1,1,2,1,2,1,2,5,2,7,1,6,4,2,2,1,1,7,5,2,1,1,1,1,1,5,1,7,2,5,5,7,3,2,1,2,1,1,5,7,7,2,3,5,4,5,5,5,5,5,5,4,1,1,1,1,1,1,1,2,4,1,2,1,2,2,2,2,1,2,1,1,4,5,3,3,4,4,2,3,5,5,2,4,4,4,2,2,2,2,4,4,2,2,4,4,2,2,2,4,2,3,4,4,4,4,3,4,4,4,3,3,4,2,4,2,2,5,4,2,2,4,2,2,4,2,3,3,4,3,3,3,4,5,2,4,2,4,2
"METU",1985,2,7,1,3,2,1,NA,NA,2,NA,36.55,36.5,36.6,39.923004150391,60,9,3,2,1,1,NA,4,2,4,2,5,4,7,7,1,NA,1,NA,3,1,8,1,1,NA,1,NA,NA,NA,NA,NA,NA,NA,NA,NA,NA,2,5,3,5,2,2,3,5,4,1,1,4,5,3,4,4,3,4,3,4,4,4,3,4,4,4,4,1,3,2,3,1,1,1,1,4,5,3,3,4,2,1,1,1,1,1,4,7,2,2,2,6,2,2,2,6,2,6,2,1,1,1,7,2,5,6,3,2,5,2,2,2,3,2,6,6,5,3,2,2,3,2,4,4,4,5,5,5,2,2,2,2,5,3,3,3,3,2,2,2,3,1,3,3,3,2,1,5,3,4,1,1,4,5,2,5,5,5,8,6,7,7,3,2,3,5,2,2,4,4,2,1,1,2,3,1,1,2,4,4,2,2,3,5,3,1,1,4,5,3,2,4,2,2,2,2,4,5,2,4,2,3,3,3,3,3,3,4,3,4,4,5,2,4,4,5,2,5,3
"Chile",1985,2,6,1,2,2,1,0,1,2,0,36.6,36.6,36.6,33.449996948242,61,10,2,1,1,1,NA,4,4,4,1,8,5,7,6,1,NA,2,8,1,NA,NA,1,1,NA,2,"Grupo de Estudio","Pol¨ªtico",NA,NA,NA,2,6,NA,NA,NA,3,3,5,4,3,4,4,3,4,4,4,4,5,2,3,3,3,3,2,2,2,3,3,2,2,2,2,1,1,1,1,2,2,1,4,2,4,4,4,3,1,1,1,1,2,1,4,5,3,1,2,2,7,2,2,5,3,6,2,2,2,3,5,6,1,2,2,2,1,1,2,1,2,2,2,2,3,1,2,2,5,1,2,5,5,5,5,5,4,3,5,5,5,7,6,5,6,5,6,2,1,2,1,1,2,2,2,2,1,1,1,2,1,1,3,5,6,6,4,5,5,3,2,4,4,4,2,4,2,2,2,5,4,1,4,4,2,2,2,4,3,3,5,4,4,5,4,4,4,4,4,4,1,2,1,4,4,4,1,4,2,2,2,4,2,2,1,4,3,2,2,4,2,4,5,4,3,2,2
"METU",1985,2,4,1,4,2,1,2,0,2,NA,36.65,36.9,36.4,39.911697387695,74,12,3,2,1,2,2,4,4,2,2,4,4,4,3,1,NA,1,NA,1,NA,NA,3,2,8,2,"siyasi ?rg¨¹t","hobi grubu",NA,NA,NA,10,3,NA,NA,NA,3,5,3,5,4,3,2,1,3,4,4,4,4,2,3,2,2,2,2,2,3,2,2,2,3,2,2,1,1,1,1,2,1,2,1,3,5,5,5,4,5,1,1,1,1,3,5,3,2,2,2,3,5,2,3,3,3,2,2,2,4,3,5,2,2,2,2,2,2,2,2,2,2,2,2,2,2,2,2,2,2,2,3,4,4,4,4,4,4,4,4,4,7,7,7,7,1,6,6,2,2,1,2,3,1,3,2,2,1,2,1,1,2,2,1,4,6,5,2,4,2,1,4,2,5,5,1,2,2,2,2,5,5,1,4,4,3,4,2,4,2,4,4,2,3,4,4,3,2,3,4,3,2,3,3,2,4,5,3,3,2,4,3,4,4,4,2,5,3,5,5,5,2,5,4,5,5,2,3
"Kassel",1985,1,2,1,3,2,1,0,16,1,15,36.65,36.7,36.6,51.287796020508,65,5,1,1,4,1,NA,4,4,4,4,3,3,5,3,2,1,2,5,3,5,4,1,1,NA,1,NA,NA,NA,NA,NA,NA,NA,NA,NA,NA,3,2,3,2,2,3,2,4,2,4,4,2,4,3,3,4,3,3,3,2,2,3,3,4,4,2,3,3,4,2,4,2,1,4,2,4,4,3,2,3,2,1,2,1,2,3,2,5,4,4,5,3,5,5,6,6,2,4,6,1,3,3,5,5,4,5,3,3,2,2,1,1,1,1,3,3,5,5,1,7,6,1,5,4,4,5,5,4,4,4,4,4,7,6,6,6,6,6,6,2,2,1,2,4,4,2,2,1,2,4,3,2,2,4,2,5,6,5,3,5,5,5,4,4,4,4,1,1,4,5,1,4,4,5,4,5,3,4,2,3,1,4,4,4,3,4,4,3,3,3,4,2,2,2,4,1,2,3,3,4,2,3,5,1,3,2,3,4,4,3,4,2,2,1,2,2,2,4,1
"Oslo",1985,2,3,1,5,2,2,NA,NA,2,NA,36.885,36.88,36.89,NA,83,-12,4,1,1,1,NA,4,2,4,1,8,4,8,8,1,NA,1,NA,3,1,8,1,2,1,2,"Fagforening","Verneombud","Ingen","Ingen","Ingen",7,2,0,0,0,4,3,5,3,2,3,5,5,3,2,5,3,5,4,3,3,2,2,2,2,2,2,2,3,3,1,3,1,1,1,1,1,1,4,1,4,4,4,4,4,2,2,4,2,4,2,4,5,3,5,2,6,5,1,3,3,6,2,6,2,6,3,7,1,1,2,1,7,1,1,2,5,2,2,2,2,2,1,3,2,2,1,5,5,5,5,5,5,5,2,5,5,7,7,7,7,7,7,7,5,4,3,5,5,3,5,4,1,3,5,1,1,3,1,1,3,3,6,4,2,5,2,1,2,2,4,4,4,3,2,4,2,2,1,2,4,4,4,2,4,4,4,4,1,5,5,5,3,3,5,4,3,2,2,4,4,1,5,2,1,4,1,1,4,2,3,2,4,4,4,4,4,2,3,4,3,4,2,3
"METU",1985,2,6,1,4,2,1,0,0,1,20,36.95,36.7,37.2,39.911697387695,71,7,3,2,1,1,NA,4,4,4,2,1,NA,5,4,1,NA,2,4,3,1,5,1,1,NA,1,NA,NA,NA,NA,NA,NA,NA,NA,NA,NA,2,2,4,3,2,3,3,4,2,2,3,2,4,3,3,3,4,3,3,3,3,3,3,4,5,2,3,2,2,2,2,4,2,2,2,2,4,4,4,4,3,2,2,2,4,3,4,6,6,3,5,3,7,3,3,4,5,6,5,3,2,7,7,7,5,3,3,5,5,3,3,3,5,3,3,5,3,2,5,3,3,5,5,5,4,5,4,3,5,3,4,4,3,4,3,3,4,4,3,2,2,1,2,2,2,4,4,1,2,2,2,2,2,2,2,4,6,4,2,4,2,3,2,2,4,4,2,2,2,2,2,4,4,2,2,4,4,2,2,2,2,4,4,4,2,2,2,2,2,2,2,2,2,2,2,2,4,4,2,2,4,2,2,4,4,4,2,4,2,4,4,4,2,4,2,4,2,4,4
"Kassel",1986,2,7,1,2,2,1,20,0,2,NA,35.4,35.3,35.5,53.550003051758,74,0,1,1,2,1,NA,4,1,4,1,3,1,5,3,1,NA,2,7,1,NA,NA,1,1,NA,2,"Wohngemeinschaft","Lerngruppe","Sportgruppe","Unikollegen","Foodsharing",5,3,2,5,10,1,2,5,4,2,5,1,1,2,2,4,2,5,3,3,4,4,3,3,2,4,3,4,5,4,3,4,1,1,1,1,1,1,1,1,1,1,1,1,1,1,1,1,1,1,1,1,4,1,1,2,1,4,1,1,7,1,1,1,1,1,5,2,1,1,1,1,1,1,1,1,1,1,6,1,1,1,1,1,7,7,7,1,5,2,4,2,2,1,1,2,2,4,4,4,4,5,3,4,5,5,3,4,2,5,5,5,5,3,2,2,1,1,4,1,5,7,5,2,1,2,5,1,1,1,5,3,3,1,1,4,4,1,5,1,3,5,1,3,4,4,4,5,4,5,5,5,5,1,2,4,1,1,2,4,4,1,3,2,4,1,1,1,2,4,5,5,2,5,5,5,5,1,4,5,5,4,1,2
"VCU",1986,1,6,2,1,2,1,0,0,2,NA,35.75,35.77777778,35.72222222,37.402297973633,68,8.888888889,5,1,2,1,NA,4,2,5,NA,1,NA,1,1,1,NA,2,8,1,NA,NA,1,1,NA,1,NA,NA,NA,NA,NA,NA,NA,NA,NA,NA,3,4,5,2,4,4,3,2,4,1,4,4,2,5,4,4,2,2,1,3,3,3,2,4,5,2,3,1,2,1,2,1,1,1,3,1,2,2,1,1,1,1,1,1,2,1,2,4,4,5,5,5,5,2,5,5,5,4,6,6,2,1,2,4,2,1,1,1,1,7,1,1,1,1,1,1,1,1,1,1,2,1,4,4,3,4,5,5,4,4,4,4,5,6,6,5,5,4,4,1,2,5,2,1,2,1,2,3,1,1,3,1,1,3,1,1,2,2,1,2,2,2,4,5,5,3,1,1,5,4,2,5,4,3,5,4,1,5,2,3,2,5,4,3,4,5,5,5,4,3,3,3,1,1,2,1,2,3,2,4,2,3,3,3,3,4,4,4,3,4,5,3,3,4,3,3,3,2,1
"Oxford",1986,2,7,1,5,2,1,2,0,2,NA,35.8,35.7,35.9,51.75,88,-2.222222222,5,1,2,1,NA,2,2,4,1,1,NA,5,2,1,NA,1,NA,3,1,8,1,1,NA,1,NA,NA,NA,NA,NA,NA,NA,NA,NA,NA,5,5,4,5,3,5,5,5,4,5,4,5,5,2,3,2,3,2,2,2,2,3,2,3,2,1,1,1,2,2,2,2,2,2,2,2,3,3,2,3,1,1,1,1,1,1,2,6,4,5,6,6,4,3,7,3,2,4,6,5,6,1,4,2,1,3,3,5,2,3,3,1,4,3,5,2,3,5,2,5,5,1,3,4,3,5,5,3,3,2,3,2,4,3,4,2,3,2,2,2,3,1,2,2,1,2,2,2,1,2,2,3,1,3,1,3,4,5,2,2,3,3,2,4,4,4,3,1,3,4,4,5,2,2,4,5,2,4,3,2,2,4,4,5,4,5,5,4,3,4,4,3,3,4,2,2,5,4,2,4,2,3,4,2,3,4,4,3,4,3,4,4,2,3,2,3,3,2,3
"Oxford",1986,1,7,1,2,2,1,3,0,2,NA,36.5,37.1,35.9,51.75,74,2.777777778,5,1,1,1,NA,4,1,4,1,3,1,2,1,1,NA,1,NA,1,NA,NA,1,2,6,1,NA,NA,NA,NA,NA,NA,NA,NA,NA,NA,2,2,3,4,2,2,1,2,3,1,2,3,3,3,3,3,3,3,3,3,3,3,3,3,3,3,3,1,1,1,1,1,1,1,1,1,1,1,1,1,1,1,1,1,1,1,1,2,2,2,3,6,4,2,5,4,2,2,3,2,2,6,2,2,2,3,1,2,6,2,2,3,1,2,6,2,2,2,2,6,6,2,2,4,3,4,4,4,4,5,4,2,6,4,4,4,4,6,4,2,2,1,2,2,1,2,2,2,3,2,2,3,2,3,2,5,6,5,3,3,2,3,3,5,4,4,1,2,4,2,2,5,4,3,4,4,4,4,2,5,2,2,4,3,4,3,2,4,4,4,4,4,2,4,4,2,2,4,4,4,2,3,3,2,2,1,3,3,3,3,2,4,5,4,3,4,3,1,2
"VCU",1986,2,7,2,3,2,1,8,0,2,NA,36.58333333,36.61111111,36.55555556,37.553298950195,64,13.88888889,5,1,2,1,NA,4,4,5,NA,1,NA,5,5,1,NA,2,7,1,NA,NA,1,1,NA,2,"ROSMY",NA,NA,NA,NA,15,NA,NA,NA,NA,4,1,2,3,5,4,2,3,2,4,4,4,4,4,3,4,3,3,3,3,3,3,4,3,4,3,3,2,3,3,4,4,2,2,2,4,4,4,4,4,2,2,2,2,2,2,2,7,7,7,7,6,6,5,6,6,5,4,4,4,6,7,4,7,2,4,6,5,6,6,5,3,4,6,3,3,4,3,2,6,6,4,4,4,3,4,2,3,4,4,4,4,3,6,6,6,6,5,5,3,3,2,4,4,3,4,4,4,4,2,2,1,3,2,2,3,2,2,1,2,2,1,3,3,4,4,2,2,1,2,4,4,2,2,4,3,2,4,3,4,1,4,5,4,4,4,3,3,2,3,4,1,3,2,3,3,4,4,4,2,2,4,3,4,2,2,4,4,5,1,2,3,4,1,2,3,4,4,4
"Serbia",1986,2,6,1,3,2,1,0.01,0,1,15,36.7,36.7,36.7,44.818603515625,44,12,6,1,1,2,2,4,4,4,1,3,1,4,4,1,NA,2,2,3,7,5,3,1,NA,1,NA,NA,NA,NA,NA,NA,NA,NA,NA,NA,4,2,5,5,4,3,3,3,5,4,3,2,4,3,4,4,2,3,2,4,3,3,4,3,4,2,3,1,1,1,1,1,1,1,1,2,4,3,3,1,2,1,1,1,1,1,2,2,2,2,4,2,2,1,5,3,4,NA,2,5,4,4,5,2,2,5,4,8,3,5,8,4,4,4,6,4,6,3,4,7,7,NA,6,3,4,3,3,4,3,2,2,2,3,2,2,2,2,2,4,2,3,1,2,2,1,3,2,3,1,2,2,4,2,1,2,4,2,4,2,1,2,2,3,2,2,4,2,3,4,4,2,4,3,4,2,2,4,3,3,3,2,2,4,2,2,4,3,2,2,2,3,4,2,3,3,2,4,3,4,4,2,3,4,4,3,2,3,3,3,2,2,2,4,3,2,2,2,3,2
"Poland",1986,2,7,1,4,2,1,13,7,2,NA,36.74,36.9,36.58,51.939300537109,89,0,9,1,1,2,2,3,1,4,1,1,NA,2,3,2,1,2,3,2,1,1,1,1,NA,1,NA,NA,NA,NA,NA,NA,NA,NA,NA,NA,1,1,2,1,2,2,1,1,1,2,2,2,2,4,4,4,3,3,3,3,4,3,3,4,4,4,4,5,5,4,5,5,4,5,4,5,5,4,5,4,5,4,4,4,3,3,5,3,6,3,2,5,3,6,4,6,5,2,4,4,3,6,6,7,2,5,4,3,3,3,2,2,2,2,3,2,6,6,2,6,4,3,4,4,4,4,4,4,4,4,4,4,6,3,4,4,5,5,5,4,5,2,2,4,4,5,4,3,4,4,3,4,1,3,2,4,5,5,4,4,5,4,2,2,2,4,2,3,3,3,3,4,3,4,3,4,4,2,4,3,3,3,4,4,3,4,3,4,3,3,4,3,3,3,2,3,3,4,2,2,2,4,4,2,4,2,2,2,4,4,3,4,2,4,4,4,4,3,3
"Serbia",1986,2,1,2,4,2,1,4,0,2,NA,36.8,36.8,36.8,44.870803833008,96,4,6,1,2,1,NA,4,4,5,NA,1,NA,5,4,1,NA,2,6,3,1,8,1,1,NA,1,NA,NA,NA,NA,NA,NA,NA,NA,NA,NA,4,5,5,5,3,5,5,2,5,4,5,3,5,2,2,3,2,2,2,2,4,2,2,3,3,3,2,3,3,2,3,2,2,2,2,3,2,2,2,2,2,2,3,2,2,2,2,2,2,2,1,2,4,2,2,NA,1,NA,2,2,2,2,4,1,2,2,NA,2,NA,5,3,5,4,5,NA,NA,NA,NA,2,7,4,NA,NA,5,4,4,4,4,3,2,3,3,3,2,2,2,2,3,2,3,3,1,3,2,2,4,2,2,2,2,2,3,1,2,1,4,4,2,1,4,5,4,2,1,1,5,3,3,4,2,4,3,2,2,3,3,3,2,4,3,3,4,3,3,4,4,2,2,4,2,2,4,2,3,2,2,4,3,3,2,4,2,3,4,3,3,2,4,4,4,4,4,3,4,2,3,2,3,2
"VCU",1986,2,7,1,3,2,1,0,1,2,NA,36.88888889,36.94444444,36.83333333,37.552200317383,57,17.22222222,5,1,1,1,NA,4,4,4,2,2,2,6,5,1,NA,2,5,3,1,5,3,2,2,1,NA,NA,NA,NA,NA,NA,NA,NA,NA,NA,3,2,3,2,5,3,1,2,2,2,4,4,4,4,3,5,3,4,4,3,4,3,4,4,5,3,3,2,4,3,4,2,3,3,4,4,5,4,4,4,4,2,3,3,3,2,4,2,3,1,3,2,2,1,5,1,1,3,3,2,4,3,1,6,2,3,1,2,2,2,2,4,3,3,1,1,1,1,3,1,1,3,1,5,4,4,5,4,4,3,3,2,2,3,3,3,2,2,2,3,4,2,3,4,4,4,4,3,4,4,3,2,2,2,2,2,2,4,4,3,3,3,2,4,4,4,2,4,2,4,4,5,3,3,3,4,4,2,4,4,2,3,4,5,4,4,4,4,2,4,3,2,2,4,2,4,4,4,4,2,2,4,2,4,4,4,1,3,4,4,3,4,2,4,4,4,3,2,2
"Zurich",1986,1,1,2,4,2,1,0,0,2,NA,37,37,37,47.531799316406,63,4,1,1,2,1,NA,4,4,5,NA,1,NA,1,1,1,NA,1,NA,1,NA,NA,1,1,NA,1,NA,NA,NA,NA,NA,NA,NA,NA,NA,NA,3,3,1,3,3,3,3,3,3,3,3,3,3,3,3,3,3,3,3,3,3,3,3,3,3,3,3,3,3,3,3,3,3,3,3,3,3,3,3,3,3,3,3,3,3,3,3,4,4,4,4,4,4,4,4,4,4,4,4,4,4,4,4,4,4,4,4,4,4,4,4,4,4,4,4,4,4,4,4,4,4,4,4,3,3,3,3,3,3,3,3,3,7,3,3,3,3,3,3,3,3,3,3,3,3,3,3,3,3,3,3,3,3,3,3,1,1,4,4,4,4,4,3,3,3,3,3,3,3,3,3,3,3,3,3,3,3,3,3,3,3,3,3,3,3,3,3,3,3,3,3,3,3,3,3,3,3,3,3,3,3,3,3,3,3,3,3,3,3,3,3,3,3,3,3,3,3,3,3
"Kassel",1986,2,7,1,1,2,1,48,0,2,NA,37.14,37.2,37.08,50.170806884766,55,5,1,1,2,1,NA,4,3,5,NA,3,2,8,7,1,NA,1,NA,3,7,6,1,1,NA,2,"Mentoring-Gruppe",NA,NA,NA,NA,4,NA,NA,NA,NA,4,4,5,4,5,2,5,4,4,1,5,4,5,5,5,5,2,3,3,3,5,3,5,4,5,4,5,5,5,1,5,1,2,3,1,4,5,3,2,5,2,1,1,1,5,1,1,3,4,1,2,2,4,2,7,4,2,3,2,2,2,6,6,5,2,5,2,6,2,6,5,6,2,4,2,1,3,3,2,7,7,1,6,1,1,5,2,1,1,1,1,1,2,1,1,2,1,2,1,4,2,1,2,1,2,2,1,1,2,2,1,1,3,5,2,2,2,5,2,2,2,2,5,1,1,5,3,5,2,1,4,3,2,1,1,2,5,1,2,1,2,5,5,5,2,5,5,5,1,1,3,1,1,5,3,4,1,5,3,5,1,3,5,4,4,5,1,3,5,4,3,1,2,4,5,2,5,1,5
"Oxford",1987,2,6,1,3,2,2,0,0,2,NA,35.5,36,35,51.75,86,0,5,1,1,1,NA,4,4,4,1,1,NA,8,3,1,NA,2,8,1,NA,NA,2,1,NA,1,NA,NA,NA,NA,NA,NA,NA,NA,NA,NA,2,4,5,4,3,4,4,4,3,3,4,5,3,4,3,4,2,3,2,3,4,4,3,3,5,2,3,2,4,2,1,1,3,1,1,4,4,1,1,1,1,1,1,1,2,1,1,5,5,5,5,6,2,1,4,1,5,1,5,1,4,5,5,1,5,3,1,2,2,1,1,1,2,1,2,1,2,1,2,1,3,3,2,5,4,4,4,2,4,4,4,4,5,5,5,5,5,5,5,2,1,1,1,2,3,2,1,3,3,3,1,1,2,3,2,4,4,5,2,2,2,1,1,4,4,4,4,4,2,3,5,2,2,1,4,3,2,1,1,1,4,4,5,2,5,4,2,5,1,4,4,2,1,5,2,3,1,5,4,4,1,1,3,5,1,1,1,4,5,4,5,5,1,4,4,3,3,2,1
"Kassel",1987,1,4,1,3,2,1,8,0,1,2,35.6,35.1,36.1,51.316696166992,54,1,1,1,2,1,NA,4,2,5,NA,5,3,8,5,2,1,2,7,1,NA,NA,2,1,NA,1,NA,NA,NA,NA,NA,NA,NA,NA,NA,NA,3,3,4,4,2,3,1,3,2,2,4,2,3,3,4,4,3,3,3,3,2,3,2,4,5,2,3,2,2,2,4,2,2,4,3,4,4,3,3,3,2,1,2,2,1,1,3,3,4,3,2,2,2,2,2,3,2,2,2,4,2,1,1,4,1,2,1,2,3,3,5,6,1,2,1,2,2,2,1,4,3,3,2,5,4,4,5,4,4,4,4,4,6,5,5,4,5,3,4,2,2,1,2,3,3,2,3,2,2,2,2,2,3,3,2,3,3,4,5,2,5,5,4,2,3,5,4,4,4,3,4,3,4,2,2,3,3,2,3,2,3,4,3,3,4,3,4,3,3,3,4,4,3,1,2,3,3,4,4,2,2,3,4,3,4,2,2,3,3,2,2,3,3,3,2,3,4,2,2
"Zurich",1987,1,5,2,4,2,1,55,10,2,NA,35.65,35.5,35.8,47.360595703125,64,1,1,1,2,1,NA,4,4,5,NA,5,5,4,4,1,NA,1,NA,3,1,8,3,1,NA,1,NA,NA,NA,NA,NA,NA,NA,NA,NA,NA,1,3,4,4,3,4,2,3,4,3,3,2,2,3,2,3,3,3,2,2,3,3,4,3,3,2,2,3,2,4,4,2,2,3,3,4,4,2,4,3,4,3,4,3,2,2,3,5,5,5,5,3,5,3,4,5,3,3,5,5,3,5,3,4,2,5,3,2,2,3,4,1,3,7,3,3,4,5,1,5,4,2,3,5,5,5,5,4,4,2,4,4,6,5,5,3,3,3,4,4,3,2,2,3,4,2,3,4,3,3,3,4,2,2,3,3,2,1,2,2,3,4,2,2,3,4,2,1,3,3,3,3,4,3,4,3,3,2,2,4,4,4,2,3,4,4,3,3,3,3,2,2,2,3,3,2,3,3,2,3,3,3,2,3,3,2,3,3,3,3,2,4,3,2,3,3,3,4,2
"Kassel",1987,1,6,1,4,2,1,2,0,2,NA,35.9,35.4,36.4,NA,53,12,1,1,2,1,NA,4,4,5,NA,8,8,4,3,2,1,2,8,1,NA,NA,3,1,NA,1,NA,NA,NA,NA,NA,NA,NA,NA,NA,NA,4,4,5,3,4,1,4,5,4,5,5,4,3,3,4,3,2,3,2,3,3,4,2,3,4,1,2,2,1,1,3,1,1,2,2,2,4,2,4,2,3,1,1,1,2,1,4,1,1,2,1,4,2,2,3,1,1,2,1,1,2,2,2,1,1,2,4,4,2,2,2,2,2,2,2,3,2,3,1,7,6,2,2,5,5,4,5,5,3,2,5,4,7,5,6,5,7,6,6,1,2,1,2,1,1,1,1,2,1,1,2,2,2,3,3,4,2,4,2,2,2,2,3,2,3,5,5,4,4,3,5,3,1,5,3,2,1,2,2,1,3,4,2,4,4,2,3,4,5,3,4,4,1,1,2,2,2,4,4,3,1,3,4,3,4,2,1,5,3,2,2,4,3,1,2,4,2,4,2
"Oxford",1987,2,7,1,5,2,1,0,27,2,NA,35.95,35.5,36.4,51.75,88,-2.222222222,5,1,1,1,NA,4,4,4,4,6,4,5,3,1,NA,2,8,3,8,5,1,1,NA,1,NA,NA,NA,NA,NA,NA,NA,NA,NA,NA,5,4,5,4,2,4,4,4,4,5,5,5,4,1,1,2,2,1,1,1,2,2,1,3,5,1,3,2,1,1,2,1,1,2,1,2,4,1,1,3,1,4,4,1,4,1,1,1,1,1,1,1,1,1,1,1,3,1,1,1,1,1,4,2,1,1,1,1,1,1,1,1,1,1,1,1,1,1,1,1,1,1,1,5,5,4,5,5,3,3,1,1,2,1,1,1,2,2,2,1,1,1,1,1,2,3,2,2,1,1,2,2,2,1,3,5,8,6,1,2,7,5,2,1,2,5,5,5,3,5,2,1,1,2,1,1,4,2,1,1,3,3,2,1,5,5,2,5,4,5,5,4,1,1,1,1,2,5,2,4,2,4,4,1,1,1,1,2,4,4,5,4,3,2,4,4,4,5,4
"Poland",1987,2,6,1,3,2,1,10,12,2,NA,36,36,36,53.416702270508,87,4,9,1,1,2,2,2,2,4,4,8,8,8,8,2,3,2,8,3,8,8,3,1,NA,1,NA,NA,NA,NA,NA,NA,NA,NA,NA,NA,3,4,4,5,4,4,2,3,3,3,3,4,4,3,3,3,3,4,4,3,3,3,3,2,4,3,3,3,2,3,1,3,1,1,2,2,1,3,1,4,4,2,2,2,3,1,3,2,2,2,2,2,2,2,2,3,5,6,2,2,2,2,4,2,2,4,6,6,3,6,5,4,4,2,3,4,6,6,4,6,6,4,3,4,5,5,5,5,3,3,4,4,7,6,6,4,5,5,5,2,3,2,3,2,3,3,3,2,2,2,4,2,2,3,2,5,6,4,4,4,4,4,2,2,2,5,4,3,3,3,4,3,2,2,4,4,3,2,4,2,3,4,4,4,4,4,4,4,4,3,3,4,3,2,3,4,3,4,3,3,3,3,3,4,3,2,2,3,4,4,3,3,3,4,3,4,4,4,4
"Serbia",1987,2,6,1,5,2,1,0,0,2,NA,36,35.6,36.4,44.818603515625,88,9,6,1,1,1,NA,2,2,4,4,6,4,4,6,1,NA,1,NA,2,1,8,1,1,NA,2,"rekreacija",NA,NA,NA,NA,20,NA,NA,NA,NA,5,3,5,4,4,2,3,3,5,4,3,2,3,2,3,3,3,2,2,2,3,2,3,3,3,3,3,3,2,2,2,4,2,2,2,4,4,2,3,2,3,2,2,4,2,4,4,1,2,2,8,4,2,5,1,3,2,1,1,5,2,1,2,2,2,2,NA,4,1,1,2,2,3,NA,NA,1,3,NA,2,6,NA,1,NA,5,4,4,5,5,5,4,4,4,6,5,4,4,6,6,6,3,3,2,3,2,2,2,2,2,2,2,2,2,2,2,2,3,2,3,2,3,3,4,2,2,4,4,2,2,2,2,2,4,3,2,4,3,2,4,3,3,3,3,3,3,4,4,2,2,1,3,2,2,4,2,2,2,2,2,2,2,2,4,3,4,3,2,2,4,3,2,2,4,3,2,2,4,2,4,2
"Kassel",1987,2,7,1,3,2,1,0,0,1,2,36.05,35.5,36.6,51.316696166992,62,7,1,1,1,2,2,4,4,4,1,3,2,5,3,1,NA,2,6,1,NA,NA,1,1,NA,1,NA,NA,NA,NA,NA,NA,NA,NA,NA,NA,3,2,5,5,4,3,2,2,4,4,4,4,3,2,4,3,2,2,2,3,3,2,2,4,5,2,3,1,4,1,2,2,1,1,2,2,4,4,4,4,2,1,1,1,1,1,4,5,5,5,6,4,6,5,2,2,1,6,1,1,1,5,1,2,1,1,2,6,2,1,1,1,1,1,1,2,1,2,1,7,7,3,1,5,5,4,5,5,4,4,4,3,6,5,5,5,4,3,3,2,1,1,2,1,2,2,1,1,2,3,2,1,1,1,1,4,7,7,4,6,6,8,1,2,1,5,3,5,2,1,5,1,2,1,1,3,4,1,2,4,3,5,2,3,4,5,5,5,4,3,4,3,1,1,1,3,3,4,2,1,1,2,2,3,4,4,1,5,3,5,5,3,1,5,5,1,4,4,1
"Chile",1987,2,7,1,2,2,1,2,0,2,0,36.05,36.1,36,33.449996948242,76,8,2,1,2,1,NA,4,2,4,4,5,1,8,8,1,NA,2,8,4,1,8,1,1,NA,2,"grupo de izquierda",NA,NA,NA,NA,15,NA,NA,NA,NA,1,3,1,4,2,2,1,1,1,1,1,1,4,3,3,4,2,2,2,3,4,2,2,3,5,4,2,4,2,2,4,2,2,5,2,4,5,5,5,5,5,2,2,5,5,2,5,7,5,5,6,1,7,2,5,7,1,5,7,4,2,5,7,2,1,3,7,2,1,5,1,1,3,2,1,1,1,2,1,1,3,1,1,4,4,4,4,4,4,4,4,4,2,5,6,7,2,2,2,2,1,1,1,1,1,2,1,1,1,2,1,1,1,2,1,4,2,2,2,2,2,2,1,4,4,4,2,2,2,5,5,5,2,1,1,2,4,2,5,1,4,4,4,2,4,5,4,5,5,5,5,5,1,1,1,4,1,5,2,4,2,3,2,4,2,1,2,2,5,1,1,1,1,1,4,2,3,1,4
"Zurich",1987,2,1,2,4,2,1,0,0,2,NA,36.15,36.2,36.1,NA,84,6,1,1,2,1,NA,4,1,5,NA,1,NA,7,7,1,NA,1,NA,1,NA,NA,2,2,8,2,"Deutschtreff f¨¹r Asylsuchende",NA,NA,NA,NA,7,NA,NA,NA,NA,4,4,5,4,3,2,4,4,4,4,5,3,4,2,3,3,2,2,2,2,3,3,2,2,4,2,3,2,2,1,2,2,1,3,1,2,2,2,1,3,1,1,1,1,1,1,1,2,2,2,3,4,3,1,2,2,4,2,4,4,5,3,2,5,4,3,3,5,3,5,2,3,3,3,3,3,3,3,2,7,7,2,4,1,2,2,2,1,1,1,2,2,6,3,4,3,3,4,4,2,2,1,2,1,2,2,2,2,3,4,2,1,2,3,1,5,7,7,5,6,6,7,4,3,4,4,2,1,3,3,1,4,3,1,4,3,3,3,3,3,3,4,4,5,3,4,4,4,1,3,3,1,1,5,3,1,3,4,1,4,2,4,2,2,2,2,4,4,4,4,4,4,4,4,3,3,3,2,3
"Oxford",1987,2,7,1,3,2,1,0,0,2,NA,36.2,35.5,36.9,51.75,88,-2.222222222,5,1,1,1,NA,4,1,4,2,5,1,8,6,1,NA,1,NA,3,8,8,1,1,NA,2,"Music Group",NA,NA,NA,NA,3,NA,NA,NA,NA,2,2,5,2,3,4,2,1,5,4,3,3,3,2,3,3,2,2,1,3,3,2,2,2,5,2,3,2,4,2,4,2,1,2,2,3,3,1,1,2,1,1,1,1,1,1,1,3,2,1,2,2,2,1,2,2,1,5,2,2,2,3,2,6,1,1,1,5,2,5,2,2,2,2,2,1,1,1,1,5,5,2,2,4,3,4,4,3,4,2,2,1,6,6,4,4,5,5,6,2,4,2,4,2,2,4,2,2,3,2,2,2,3,3,2,5,5,4,2,2,6,4,3,3,4,4,2,2,1,1,3,5,2,2,3,3,3,3,2,2,3,3,4,3,3,5,4,3,3,3,3,3,1,2,1,3,4,4,4,4,2,3,2,4,2,2,4,3,3,2,2,3,2,3,3,2,2,4,2
"Kassel",1987,1,7,1,4,2,1,40,24,2,NA,36.2,36,36.4,51.316696166992,62,7,1,1,4,1,NA,2,2,4,1,2,2,4,2,1,NA,2,2,1,NA,NA,1,1,NA,2,"Hochschulgruppe",NA,NA,NA,NA,2,NA,NA,NA,NA,3,3,3,2,2,2,3,3,2,2,2,2,4,3,3,3,3,3,3,2,3,3,3,3,3,3,3,3,4,4,4,3,2,4,4,3,2,3,2,2,2,2,2,2,3,3,2,4,5,4,5,5,5,4,4,5,4,4,4,5,3,4,3,4,4,4,3,4,4,3,3,3,3,4,3,4,2,4,3,5,5,4,4,4,3,3,4,3,2,2,3,3,5,3,4,4,4,4,4,2,2,2,3,2,2,2,3,3,2,2,2,3,3,4,3,3,2,3,2,3,3,3,2,3,3,4,3,2,3,3,2,4,3,2,3,3,3,3,4,2,3,3,3,4,4,4,4,4,2,4,3,2,2,4,3,3,3,3,4,3,3,2,3,4,3,2,4,3,4,4,4,2,3,2,2,2,2,3,2
"Oslo",1987,1,6,1,3,2,2,0,12,2,NA,36.35,36.7,36,NA,50,-2,4,1,1,2,2,4,4,4,4,3,2,5,2,1,NA,1,NA,3,1,8,1,1,NA,1,NA,NA,NA,NA,NA,NA,NA,NA,NA,NA,3,3,2,2,2,3,2,4,2,3,4,2,2,2,2,2,3,3,3,4,2,3,3,3,2,3,3,3,4,4,4,3,4,3,4,4,4,4,4,4,4,4,4,4,4,3,4,2,2,3,2,4,2,4,3,5,3,4,2,5,4,3,3,3,5,2,5,4,3,4,4,3,4,6,3,4,6,3,4,3,5,3,4,5,5,5,5,5,5,5,5,5,6,4,4,4,3,5,5,2,4,2,3,2,2,2,3,4,3,2,2,2,4,3,3,5,7,6,2,3,4,6,3,3,2,4,3,2,4,3,3,3,2,3,2,4,3,3,3,2,3,2,4,3,3,4,3,3,3,4,3,3,3,2,3,4,3,3,3,2,3,3,2,4,3,3,3,4,3,2,4,4,4,4,3,4,3,4,2
"Chile",1987,2,7,1,4,2,1,2,18,1,NA,36.45,36.5,36.4,33.449996948242,87,7,2,1,1,1,NA,4,4,4,4,8,3,5,3,1,NA,1,NA,5,2,8,1,1,NA,1,NA,NA,NA,NA,NA,NA,NA,NA,NA,NA,2,2,4,3,2,4,2,4,3,4,4,2,4,2,4,3,2,2,2,3,3,2,3,3,4,2,3,4,2,4,4,2,1,3,4,4,4,3,4,4,1,2,3,3,3,1,3,2,2,2,7,1,6,1,5,2,2,6,1,2,2,3,7,6,2,2,1,3,1,1,1,1,1,2,1,1,1,2,1,5,5,2,2,4,4,4,4,4,3,4,4,4,5,6,6,5,6,4,5,2,2,2,2,2,2,3,2,3,2,2,3,2,1,4,2,4,6,4,3,4,3,3,5,4,3,5,4,2,2,2,2,3,2,3,3,4,3,3,3,3,2,4,4,5,4,5,5,4,3,3,4,2,2,2,2,1,3,2,3,2,2,3,2,4,4,2,2,4,4,3,3,4,5,2,5,4,4,2,3
"SMU",1987,1,7,1,3,2,1,NA,0,2,NA,36.5,36.4,36.6,1.2931060791016,70,27,5,1,2,1,NA,4,4,4,4,5,2,8,4,2,8,2,8,1,NA,NA,3,2,5,2,"SWC","DBS",NA,NA,NA,3,2,NA,NA,NA,5,5,5,5,5,5,5,3,5,5,5,5,5,3,2,3,1,1,1,1,2,1,1,2,4,2,2,1,1,1,1,1,1,1,1,1,1,1,1,1,1,1,1,1,1,1,1,1,1,1,1,1,1,1,1,1,1,1,1,1,2,1,1,1,1,1,1,1,1,1,1,1,1,7,1,1,1,1,1,1,1,1,1,4,4,4,4,4,4,4,4,4,6,7,7,7,7,7,7,1,1,1,1,1,1,1,1,1,1,1,1,1,2,5,3,3,2,1,2,2,2,2,3,5,5,1,1,3,5,3,3,5,5,3,5,5,3,5,2,1,4,4,4,4,4,4,3,4,3,4,4,4,2,2,2,4,2,5,5,5,1,3,2,4,3,4,4,4,4,4,3,2,3,4,4,1,1,1,3
"Serbia",1987,1,4,1,5,2,1,9,0,2,NA,36.5,36.5,36.5,44.818603515625,95,11,6,1,2,1,NA,4,4,4,1,8,3,8,8,1,NA,2,8,3,8,8,1,1,NA,1,NA,NA,NA,NA,NA,NA,NA,NA,NA,NA,4,3,4,5,4,4,4,5,4,4,4,4,4,2,3,3,1,2,1,1,2,2,2,3,4,2,2,3,3,2,3,3,2,2,2,3,3,2,2,3,2,1,1,2,1,1,2,2,2,2,2,8,1,2,2,NA,2,NA,2,2,2,4,2,2,2,7,6,7,4,5,3,5,4,4,4,3,4,4,4,6,7,3,4,5,3,4,5,5,2,2,2,2,4,4,5,4,6,5,5,1,1,1,3,2,1,2,1,5,2,2,1,1,2,5,2,5,2,3,1,1,2,3,1,4,2,4,1,4,2,2,2,5,2,3,2,1,4,5,3,3,4,3,3,4,2,2,2,2,2,2,4,4,2,2,2,2,3,5,4,2,2,4,4,4,4,3,2,4,4,4,3,3,3,4,2,2,3,4,2
"VCU",1987,2,7,1,3,2,1,5,0,2,NA,36.58333333,36.44444444,36.72222222,37.619201660156,82,11.11111111,5,1,1,2,2,4,2,4,4,6,4,4,4,2,2,2,3,3,8,4,1,1,NA,2,"GK HONOR SOCIETY",NA,NA,NA,NA,5,NA,NA,NA,NA,4,2,5,4,4,3,2,3,4,4,4,4,4,2,3,3,3,2,4,2,2,3,2,3,4,2,2,4,4,2,4,2,2,3,2,3,4,4,4,2,4,2,2,4,4,2,2,3,3,2,2,2,3,5,2,5,3,5,2,2,2,2,3,5,2,2,2,3,2,2,2,2,2,2,2,2,2,2,2,3,3,2,6,2,4,2,2,4,2,2,2,1,3,4,4,3,3,3,3,2,2,2,2,2,3,4,2,2,2,2,2,2,2,2,2,5,7,6,6,5,6,6,3,3,4,4,1,2,2,2,2,4,2,1,2,2,4,4,4,4,2,2,4,3,4,4,4,4,4,4,4,4,4,2,2,2,5,3,4,3,2,2,2,4,2,2,2,4,4,4,3,4,3,2,4,4,4,4,4
"Oxford",1987,2,5,2,3,2,1,3,0,2,NA,36.65,36.6,36.7,51.75,88,-2.222222222,5,1,2,1,NA,4,4,5,NA,2,1,6,3,1,NA,1,NA,3,1,6,1,1,NA,2,"Archery club",NA,NA,NA,NA,7,NA,NA,NA,NA,2,2,3,5,2,4,3,2,4,4,4,2,4,3,3,5,3,3,2,3,3,3,2,3,4,2,3,2,4,1,3,1,1,1,4,4,2,1,1,2,1,1,1,1,1,1,1,2,1,1,1,1,1,1,2,2,1,7,1,7,1,2,1,1,1,3,5,4,2,5,2,5,2,2,3,5,5,3,1,2,2,2,4,5,4,4,5,3,3,3,4,2,4,5,5,5,4,5,4,2,5,1,4,1,1,5,5,1,4,1,4,5,3,4,3,4,4,3,1,3,1,2,1,1,1,5,4,3,2,2,2,2,2,1,1,2,5,5,5,3,1,3,4,4,3,2,1,3,2,3,2,1,1,3,2,2,1,3,4,2,2,2,2,1,3,1,1,3,4,1,1,3,4,2,1,2,2,1,1
"VCU",1987,2,7,1,5,2,1,4,0,2,NA,36.66666667,36.61111111,36.72222222,37.552200317383,94,13.33333333,5,1,1,1,NA,4,2,4,2,3,1,2,2,1,NA,2,5,3,8,1,1,1,NA,1,NA,NA,NA,NA,NA,NA,NA,NA,NA,NA,3,4,4,4,4,4,3,4,2,3,3,4,5,4,3,4,2,3,3,2,2,3,3,3,4,4,4,1,4,2,4,1,1,3,3,3,4,3,3,4,3,1,1,1,5,3,2,6,5,5,3,2,6,3,2,3,5,2,2,3,3,5,4,6,2,4,3,6,2,3,2,3,3,2,2,3,2,2,2,3,3,4,3,4,4,4,3,4,3,3,3,3,7,7,6,6,6,6,6,4,4,2,2,4,2,4,2,4,2,2,2,3,2,3,2,5,6,5,5,5,2,1,2,3,3,5,4,3,3,4,4,3,4,2,2,4,3,2,2,3,1,3,4,4,3,4,4,4,4,4,4,4,4,4,4,3,4,4,4,3,2,3,4,2,4,3,4,3,4,4,4,4,3,4,3,4,4,2,2
"Poland",1987,2,7,1,3,2,1,7,4,2,NA,36.7,36.7,36.7,52.233306884766,70,4,9,1,1,1,NA,4,2,2,2,4,2,7,4,2,1,2,1,6,1,2,1,1,NA,1,NA,NA,NA,NA,NA,NA,NA,NA,NA,NA,2,1,2,3,5,3,1,1,2,1,1,1,4,5,4,4,3,2,3,2,5,3,2,3,4,3,5,1,1,1,3,1,1,2,1,1,1,1,1,1,1,1,1,1,1,1,1,5,4,1,2,2,5,1,1,3,1,3,1,1,2,4,5,7,1,1,3,4,1,5,1,2,2,2,2,4,6,3,1,5,4,3,2,5,3,5,5,4,3,3,3,3,6,6,4,4,6,6,6,3,2,3,2,3,3,4,2,1,3,3,3,4,1,2,2,5,5,6,2,3,4,1,4,4,4,4,1,3,3,3,3,5,4,1,4,5,5,3,4,4,4,5,5,5,3,5,5,5,2,5,3,2,1,4,4,4,2,2,3,2,2,4,3,4,3,2,1,4,5,5,3,5,2,5,4,4,3,3,5
"METU",1987,2,7,2,4,2,1,0,1,2,NA,36.7,36.7,36.7,39.911697387695,66,4,3,2,2,1,NA,4,4,5,NA,8,5,6,4,1,NA,2,8,2,1,8,7,1,NA,1,NA,NA,NA,NA,NA,NA,NA,NA,NA,NA,4,4,4,5,3,4,3,4,2,4,4,3,5,2,3,3,2,2,2,2,3,3,3,3,3,2,3,4,4,4,2,4,4,4,2,4,4,4,4,4,4,1,2,2,2,2,5,2,2,2,2,7,6,2,2,2,1,5,2,1,1,4,4,5,1,2,2,5,5,5,2,4,5,5,2,1,4,2,5,2,2,3,4,5,5,5,5,5,4,3,5,5,6,6,6,7,6,5,5,1,2,1,2,1,2,2,2,4,1,1,2,2,4,3,5,4,4,6,1,2,2,1,2,2,2,5,3,4,3,2,4,4,4,1,1,4,4,3,4,4,2,4,4,4,4,4,4,4,4,4,4,4,1,1,1,2,5,4,4,2,2,4,3,4,4,4,1,4,3,4,4,5,2,5,5,5,4,4,4
"Poland",1987,2,7,2,3,2,1,17,12,2,NA,36.8,36.8,36.8,52.25,85,1,9,1,2,1,NA,4,4,5,1,3,3,5,3,2,1,2,5,6,1,8,1,2,3,1,NA,NA,NA,NA,NA,NA,NA,NA,NA,NA,4,5,5,5,4,5,4,4,3,5,4,4,5,2,3,4,5,4,5,3,1,4,4,4,2,4,2,1,1,1,2,2,2,1,2,2,2,1,2,3,2,1,1,3,2,1,3,5,3,2,5,3,5,4,5,4,2,5,2,2,6,2,5,3,2,5,4,2,4,4,5,2,6,5,4,3,6,5,3,7,6,6,5,4,2,3,4,3,2,1,3,2,2,3,2,2,3,4,4,2,2,2,2,1,2,2,1,1,1,1,3,3,1,2,2,4,6,5,2,2,4,2,4,4,2,4,2,3,2,2,2,5,4,1,2,5,2,3,2,1,3,3,4,4,4,4,2,3,2,2,3,2,2,4,2,2,1,2,2,4,2,2,4,4,3,1,2,2,4,4,3,4,4,4,4,4,4,2,4
"Bamberg",1988,1,7,1,4,2,1,1,0,2,NA,35.55,35.6,35.5,55.699996948242,87,1,1,1,2,1,NA,4,4,4,1,5,4,7,4,1,NA,1,NA,3,1,6,7,2,3,2,"Klettergruppe",NA,NA,NA,NA,1,NA,NA,NA,NA,4,4,4,5,4,5,4,3,4,4,4,5,4,2,2,2,1,3,2,3,2,2,3,1,2,1,2,1,1,1,1,1,1,1,1,1,2,1,2,2,2,1,1,1,1,1,2,4,1,2,2,2,1,1,2,2,1,2,1,3,1,2,2,1,1,1,2,2,2,2,2,2,1,2,3,3,1,1,1,4,4,2,2,3,4,3,4,3,2,2,4,4,4,2,3,4,3,2,3,2,2,3,2,2,1,2,2,3,1,1,1,4,2,3,2,4,4,5,1,1,2,1,5,1,5,5,4,1,1,3,1,4,2,4,4,2,1,2,1,4,2,5,4,5,4,3,5,4,2,3,4,3,1,3,3,1,1,4,1,4,2,2,4,3,4,4,4,3,4,2,4,3,3,4,3,4,4,4,1
"Kassel",1988,1,2,1,3,2,1,18,0,1,15,35.7,35.3,36.1,51.305603027344,68,7,1,1,2,1,NA,2,2,5,NA,4,2,4,3,1,NA,2,8,1,NA,NA,3,1,NA,1,NA,NA,NA,NA,NA,NA,NA,NA,NA,NA,2,2,4,2,2,5,3,2,3,4,4,2,2,3,3,3,3,3,3,3,3,3,3,3,3,3,3,4,3,2,4,4,2,3,4,4,3,4,4,4,4,4,4,3,3,5,4,4,4,4,4,4,4,4,4,4,4,4,4,4,4,4,4,4,4,4,4,4,4,4,4,4,4,4,4,4,4,4,4,4,4,4,4,4,2,3,3,4,3,2,4,3,3,3,3,3,3,3,3,2,2,2,3,2,3,3,2,2,3,2,2,3,2,3,1,4,4,5,4,2,3,3,2,2,2,5,3,4,4,3,4,4,1,3,3,5,4,1,3,4,4,5,4,5,3,5,4,5,2,3,4,3,1,2,3,3,2,3,3,4,2,2,2,4,2,4,2,3,3,3,4,3,2,2,3,3,3,3,3
"Oxford",1988,2,7,1,3,2,1,1,0,2,NA,35.7,35.8,35.6,51.75,74,2.777777778,5,1,2,1,NA,4,2,5,NA,2,2,8,8,2,8,2,8,1,NA,NA,1,1,NA,2,"Spiritual course",NA,NA,NA,NA,5,NA,NA,NA,NA,3,2,2,1,2,4,2,4,2,3,4,2,4,4,3,3,3,2,2,2,4,3,3,3,4,3,2,4,4,2,4,2,5,2,4,4,5,5,3,5,3,2,2,3,3,3,2,2,2,3,2,2,6,2,2,2,2,2,2,4,2,2,2,3,2,2,2,6,2,2,2,2,2,2,2,3,2,3,2,6,6,2,3,5,3,4,4,3,3,4,3,3,4,5,5,5,5,5,5,4,2,2,2,2,2,3,2,2,4,3,2,2,2,2,1,4,3,3,2,3,1,1,2,2,4,4,4,5,1,2,4,4,2,2,4,2,3,1,2,4,2,1,5,4,2,5,4,4,3,2,3,2,2,3,2,4,4,4,4,2,2,4,2,4,2,2,1,4,3,2,2,3,2,5,2,4,2,2,4
"Bamberg",1988,2,6,1,3,2,1,2,0,2,NA,35.8,35.6,36,51.371704101562,81,9,1,1,1,2,2,4,2,4,1,1,NA,6,1,1,NA,1,NA,1,NA,NA,1,1,NA,2,"Krabbelgruppe",NA,NA,NA,NA,5,NA,NA,NA,NA,2,1,2,2,2,5,1,1,1,5,2,2,3,2,3,3,3,4,3,2,3,4,3,3,3,3,4,1,4,1,1,1,1,1,1,1,2,2,1,1,1,1,1,1,1,1,2,1,1,1,1,1,1,1,1,2,1,1,1,1,1,1,1,1,1,1,1,1,1,1,1,1,1,1,1,1,1,2,1,2,2,1,3,5,5,4,4,4,5,5,5,3,3,3,4,4,3,2,3,2,2,2,2,2,2,2,1,3,1,1,2,1,1,3,1,4,7,6,4,3,3,4,4,5,4,4,1,2,4,5,1,5,3,2,4,5,2,3,1,1,3,4,4,5,4,5,2,5,1,2,4,1,1,1,1,2,1,4,3,3,2,3,2,5,4,3,3,3,3,3,3,2,2,5,3,3,2,1,1
"Kassel",1988,2,2,2,4,2,1,0,0,2,NA,36,35.6,36.4,51.287796020508,77,5,1,1,2,1,NA,4,4,5,NA,8,5,8,8,2,1,2,8,3,5,8,1,2,2,1,NA,NA,NA,NA,NA,NA,NA,NA,NA,NA,1,4,5,3,2,2,4,4,3,4,4,3,3,2,2,2,2,2,1,2,2,2,3,2,4,2,2,2,1,1,3,3,1,1,2,1,3,1,2,2,2,1,1,1,2,1,3,1,2,3,4,5,2,1,4,6,2,6,2,4,1,1,4,1,1,1,2,4,4,1,2,5,3,7,3,3,3,3,1,5,6,3,3,3,4,4,3,3,3,2,4,2,3,4,4,4,4,4,4,1,2,1,2,1,1,1,2,1,1,1,3,3,2,3,2,3,4,4,2,4,3,4,2,4,3,4,4,3,4,4,2,4,2,2,3,3,4,3,1,1,3,4,4,2,4,4,4,4,3,4,3,2,1,2,2,3,1,3,3,4,3,3,2,4,2,1,1,3,2,2,3,3,2,2,2,2,2,4,1
"Kassel",1988,2,7,1,2,2,1,8,0,2,NA,36.05,36,36.1,50.087493896484,65,3,1,1,2,1,NA,4,4,5,NA,4,3,8,8,2,1,1,NA,3,1,8,4,1,NA,2,"Tanzkurs",NA,NA,NA,NA,7,NA,NA,NA,NA,4,4,5,4,3,3,4,4,4,2,5,4,5,3,3,3,2,2,2,3,3,2,3,4,4,2,3,1,3,1,3,1,1,1,1,2,2,1,2,1,2,1,1,1,1,1,1,2,2,1,2,2,3,2,2,2,2,2,2,1,1,1,1,2,1,1,1,2,2,2,2,1,2,6,1,2,1,1,2,6,4,1,2,5,4,4,4,4,3,3,3,4,3,5,5,4,5,3,3,1,2,2,3,1,2,2,1,2,1,1,2,1,2,3,1,4,6,5,4,2,2,3,2,4,4,3,2,1,3,3,2,4,4,3,4,1,4,4,2,3,2,4,4,5,4,4,3,4,3,4,3,3,2,2,3,2,4,5,4,4,2,3,2,4,2,1,3,4,4,2,3,4,2,3,3,3,3,2,4
"Kassel",1988,2,7,2,4,2,1,5,0,2,NA,36.1,35.8,36.4,51.305603027344,85,4,1,1,2,1,NA,1,NA,4,1,1,NA,6,4,2,1,2,5,1,NA,NA,1,1,NA,1,NA,NA,NA,NA,NA,NA,NA,NA,NA,NA,3,4,4,4,5,3,2,4,3,3,4,4,3,2,3,3,3,3,2,3,3,3,3,3,3,2,3,3,3,3,4,3,1,3,3,4,4,3,4,3,3,3,3,3,3,3,4,6,6,6,6,6,6,6,6,6,4,2,6,6,6,4,6,6,4,6,2,6,2,4,4,4,2,6,2,2,2,2,4,6,6,3,4,4,4,4,3,3,4,4,4,4,4,6,5,5,4,3,3,2,2,1,4,2,2,2,2,2,2,2,2,2,4,2,2,4,6,6,3,3,3,3,5,3,2,4,4,4,3,3,4,3,2,1,1,2,5,1,3,2,2,4,3,3,4,3,4,4,3,4,3,3,2,2,2,3,3,3,3,2,3,3,3,3,3,2,2,3,3,2,2,4,2,4,4,4,4,2,3
"Zurich",1988,2,7,1,3,2,1,0,0,2,NA,36.15,36.1,36.2,46.980499267578,63,7,1,1,1,1,NA,4,4,4,4,5,3,5,3,2,1,2,8,3,1,8,3,1,NA,2,"Musikverein",NA,NA,NA,NA,NA,NA,NA,NA,NA,3,3,4,4,3,3,4,5,2,4,5,2,3,4,3,3,3,3,3,3,3,3,4,3,4,2,4,2,4,2,4,2,2,2,2,2,4,2,4,4,2,2,1,1,2,2,3,6,5,3,5,4,5,1,5,5,2,5,3,3,2,5,2,5,2,2,2,6,3,3,3,5,3,2,1,3,1,2,3,6,5,3,2,5,5,4,4,4,4,4,4,4,3,4,3,5,5,3,3,2,2,1,2,2,2,2,2,2,2,2,2,2,2,4,2,3,4,5,2,2,2,2,2,4,3,4,1,4,4,2,4,4,4,1,3,5,5,2,2,4,2,4,3,4,3,4,4,3,2,3,3,3,1,2,3,2,3,3,4,2,2,4,3,4,4,2,2,4,4,3,3,4,2,2,4,3,4,2,4
"Oslo",1988,2,7,1,4,2,1,NA,NA,2,NA,36.3,36.2,36.4,60.141494750977,94,-10,4,1,1,1,NA,4,4,4,2,5,2,8,8,1,NA,2,4,3,1,2,1,1,NA,1,NA,NA,NA,NA,NA,NA,NA,NA,NA,NA,2,3,4,4,3,4,2,3,2,4,5,4,4,2,2,4,2,1,2,3,2,2,2,2,5,2,2,1,1,1,4,2,2,3,2,3,4,3,3,2,4,2,3,1,1,1,2,4,3,2,1,5,3,3,3,5,1,3,2,1,3,1,4,2,2,2,4,3,4,4,3,1,4,6,5,3,4,3,1,4,4,2,4,5,5,5,5,5,4,3,4,4,4,7,5,4,4,5,4,2,4,1,4,2,2,4,4,4,2,3,4,3,2,3,3,4,6,6,1,4,2,2,1,4,2,3,3,5,2,2,4,4,2,1,2,3,4,2,4,3,2,2,3,4,5,4,4,4,3,3,4,3,1,1,2,3,4,4,4,2,2,2,4,4,4,3,2,4,4,5,5,3,2,4,4,3,3,4,4
"METU",1988,1,7,1,2,2,1,12,NA,1,24,36.3,36.2,36.4,39.911697387695,62,5,3,2,2,1,NA,3,3,4,1,2,1,4,2,1,NA,2,8,3,1,6,1,1,NA,2,"??RENC?","KL?P","OKUMA","??RETMEN","EV",6,8,5,3,2,3,5,3,2,2,2,1,1,3,2,1,2,3,4,4,4,4,3,3,3,3,4,4,3,4,3,3,5,1,2,4,4,4,2,1,2,4,3,4,4,2,2,1,2,1,1,4,7,5,6,5,7,6,7,5,6,5,7,5,6,6,2,7,2,4,3,2,2,3,5,1,3,3,3,1,1,1,2,3,2,1,1,5,2,4,4,4,2,3,4,4,4,7,6,7,5,5,5,6,3,4,4,4,3,3,4,5,4,4,4,4,5,2,5,3,3,2,5,3,5,5,3,1,4,2,4,4,4,2,4,5,4,4,1,1,3,5,1,2,3,2,4,4,4,2,5,4,4,3,2,4,4,1,2,2,3,2,2,1,4,4,2,2,4,4,4,1,4,1,5,4,5,2,3,4,3,4,2,4
"Kassel",1988,1,7,1,3,2,1,0,0,2,NA,36.4,36.3,36.5,51.316696166992,53,12,1,1,2,1,NA,4,1,4,1,2,1,5,4,1,NA,2,8,1,NA,NA,2,1,NA,2,"Meditationsgruppe",NA,NA,NA,NA,1,NA,NA,NA,NA,2,2,3,4,2,3,2,3,1,4,3,3,4,3,3,3,2,3,3,3,4,3,3,3,4,2,4,2,2,1,2,2,1,3,2,3,4,3,3,4,2,1,2,3,2,1,2,5,4,3,3,3,6,2,5,5,2,5,2,2,2,5,4,5,2,2,2,6,2,2,2,2,2,3,2,3,5,5,2,6,4,2,3,1,1,1,1,2,1,1,1,1,6,5,5,5,6,5,5,2,2,1,2,3,1,4,2,2,3,2,2,2,1,2,1,5,6,6,3,5,5,5,4,3,2,5,3,3,4,3,4,4,4,1,1,3,4,1,2,5,3,5,4,5,4,5,3,4,1,2,3,1,1,4,1,3,4,4,1,4,2,2,2,4,3,4,2,3,4,3,4,5,2,5,3,4,4,1,3
"METU",1988,2,7,1,4,2,1,0,0,2,NA,36.4,36.5,36.3,39.911697387695,66,4,3,2,1,1,NA,4,4,4,4,6,3,6,4,1,NA,1,NA,3,1,8,1,1,NA,1,NA,NA,NA,NA,NA,NA,NA,NA,NA,NA,3,4,4,4,5,4,3,2,3,3,4,5,5,2,4,3,2,3,3,2,3,2,2,3,4,2,2,4,4,4,4,4,2,4,4,4,5,4,5,5,5,1,1,1,2,2,5,3,1,1,5,6,2,2,3,2,2,2,1,1,1,1,3,2,1,2,2,1,1,1,1,1,1,1,1,1,1,1,1,1,1,2,2,5,5,4,5,5,5,5,5,4,6,6,6,6,6,5,5,3,4,1,3,4,1,4,3,3,3,2,2,2,2,4,1,4,6,6,2,4,4,2,2,2,2,5,4,2,2,2,4,5,4,1,2,4,4,3,5,2,2,4,2,4,4,4,4,4,4,3,4,4,1,2,1,1,4,4,4,1,1,4,2,4,4,4,3,3,4,4,4,2,2,4,4,3,3,4,4
"METU",1988,2,7,1,3,2,1,2,0,2,NA,36.45,36.4,36.5,39.923004150391,52,3,3,2,2,1,NA,4,4,2,1,4,4,5,2,1,NA,1,NA,3,1,8,1,2,4,2,NA,NA,NA,NA,NA,3,NA,NA,NA,NA,3,3,3,2,4,3,2,3,2,3,3,4,2,3,4,3,3,3,3,3,4,3,3,3,4,3,3,2,2,3,2,3,2,4,2,2,4,3,4,3,4,2,2,2,2,2,3,6,3,2,3,6,5,5,3,5,2,6,3,6,2,3,5,5,5,2,2,3,3,2,1,2,2,3,2,2,2,1,2,3,3,2,2,4,3,4,3,3,4,2,4,3,7,6,6,6,6,5,6,2,2,2,2,2,2,3,2,2,2,2,2,2,3,3,2,4,6,4,2,4,2,2,3,2,4,4,1,4,1,4,2,5,4,2,4,4,4,2,2,4,2,4,4,2,4,4,4,4,3,2,4,3,1,2,2,2,4,2,2,4,2,3,3,4,3,4,2,4,2,4,4,4,2,2,4,3,2,2,4
"Bamberg",1988,2,3,1,3,2,1,2,0,2,NA,36.495,36.4,36.59,49.600006103516,76,6,1,1,1,1,NA,4,4,4,1,3,2,8,5,1,NA,2,6,1,NA,NA,2,2,8,2,"Kulturprojektgruppe",NA,NA,NA,NA,7,NA,NA,NA,NA,2,3,4,4,2,3,3,3,2,4,4,2,3,2,3,3,2,2,2,2,3,3,2,2,3,2,2,4,4,2,3,3,3,4,2,4,4,3,3,4,4,3,4,4,3,2,2,2,4,2,5,2,2,2,2,2,2,1,2,5,2,2,2,4,2,3,1,2,2,1,2,2,1,1,2,2,3,3,1,5,4,1,2,4,4,4,4,3,2,3,4,3,4,2,3,3,3,2,3,3,3,2,3,2,2,4,2,4,2,1,3,3,2,3,2,3,5,5,3,4,4,4,3,3,3,4,4,2,3,2,4,3,3,2,2,3,2,2,2,2,3,4,4,1,5,3,4,4,3,3,3,3,1,1,3,3,2,4,2,4,3,3,2,3,2,2,2,4,4,3,4,4,2,3,3,4,4,2,3
"Serbia",1988,1,6,2,4,2,1,0,0,2,NA,36.5,36.5,36.5,44.818603515625,54,11,6,1,2,1,NA,4,4,5,NA,2,2,8,8,2,1,2,3,3,1,2,1,2,3,2,"projekat","projekat","projekat",NA,NA,1,2,1,NA,NA,5,4,4,3,4,4,3,3,3,4,4,5,5,4,4,4,2,3,3,3,3,3,2,3,5,4,3,1,1,1,2,1,1,1,1,2,1,2,1,2,1,1,1,1,1,1,1,3,2,4,5,5,5,4,8,NA,3,NA,5,4,2,2,5,5,2,4,4,8,1,3,1,3,5,3,4,4,6,4,3,6,6,4,4,5,3,4,5,5,2,3,3,3,2,4,4,4,5,5,3,1,3,1,4,1,1,4,3,2,2,1,1,1,1,2,1,3,4,5,1,4,4,4,2,4,5,2,1,1,1,3,2,5,2,1,2,2,4,4,5,4,3,4,3,3,3,3,3,3,1,5,4,2,4,2,3,1,2,4,3,4,2,3,2,4,3,1,3,3,1,3,4,4,4,4,1,3,1,2,1
"METU",1988,2,7,1,4,2,1,0,0,2,NA,36.5,36.4,36.6,39.911697387695,60,9,3,2,1,1,NA,4,4,4,4,8,4,8,8,1,NA,2,8,3,1,8,1,1,NA,1,NA,NA,NA,NA,NA,NA,NA,NA,NA,NA,4,5,5,3,5,4,3,2,3,4,4,5,4,2,3,3,2,3,4,2,3,2,2,2,4,2,2,3,3,3,3,4,3,4,1,4,4,3,4,4,4,1,1,2,3,1,4,5,3,1,1,5,2,2,1,3,1,3,1,2,1,2,3,2,1,1,1,2,1,1,1,1,1,2,1,1,2,1,2,1,2,1,1,5,5,5,5,5,4,4,5,5,3,5,4,4,4,3,4,1,1,1,1,1,2,2,2,1,2,2,3,3,1,3,3,4,4,4,4,3,4,3,3,2,4,4,2,2,4,2,2,4,3,3,4,4,3,3,4,4,5,5,3,3,5,5,5,5,5,4,5,5,1,1,2,1,4,5,4,4,2,3,3,5,3,4,2,4,3,4,3,4,1,5,5,3,3,3,3
"Oxford",1988,1,7,2,1,2,1,0,0,2,NA,36.55,36.4,36.7,51.75,86,0,5,1,2,1,NA,4,3,5,NA,1,NA,2,1,2,4,2,4,1,NA,NA,3,1,NA,1,NA,NA,NA,NA,NA,NA,NA,NA,NA,NA,2,1,1,4,4,3,1,1,1,1,1,1,3,5,4,5,3,4,3,3,3,3,4,4,5,4,4,4,4,4,4,2,2,4,2,4,2,2,3,2,2,2,4,2,2,4,2,6,6,6,5,5,6,4,5,6,4,5,4,4,4,5,5,6,2,3,5,5,3,2,3,4,3,5,3,3,5,2,4,5,4,4,3,2,2,2,1,3,1,2,2,1,6,7,7,7,6,6,5,3,4,2,2,4,4,4,4,2,3,2,2,2,2,2,2,4,7,5,5,5,5,5,2,2,1,4,3,4,3,2,3,4,2,2,2,3,4,2,3,3,2,3,3,3,4,3,3,3,1,3,3,1,3,5,3,2,3,4,3,2,2,3,4,3,4,2,2,3,4,2,2,3,4,4,4,4,3,2,4
"Tsinghua",1988,1,7,2,3,2,1,0,0,2,0,36.55,36.5,36.6,39.928894042969,22,8,7,3,2,1,0,4,2,5,0,8,1,8,4,1,1,2,3,1,1,3,1,1,4,2,NA,NA,NA,NA,NA,0,0,0,0,0,4,4,4,3,3,4,2,4,4,4,4,3,3,2,3,3,2,2,2,2,3,2,2,2,4,3,3,3,4,3,4,4,4,5,4,4,4,4,4,4,4,4,3,3,4,4,4,6,3,5,6,5,6,5,5,3,2,5,6,5,5,5,6,6,2,5,3,6,2,3,6,5,3,3,3,3,2,2,6,2,3,3,2,5,4,5,5,5,4,5,5,5,3,2,3,6,6,6,5,4,4,3,2,4,3,4,3,4,3,2,1,4,2,4,2,4,2,6,4,2,4,5,2,3,3,4,2,4,2,3,4,3,4,2,3,4,2,2,4,4,2,3,4,4,4,2,4,4,3,3,4,4,4,3,4,3,4,4,4,3,2,4,4,3,4,4,4,4,3,3,4,4,4,4,4,5,5,4,3
"Serbia",1988,2,7,1,5,2,1,0,0,1,2,36.6,36.5,36.7,44.818603515625,53,6,6,1,1,1,NA,4,4,2,2,4,1,6,2,1,NA,2,8,1,NA,NA,1,1,NA,1,NA,NA,NA,NA,NA,NA,NA,NA,NA,NA,4,3,4,5,2,4,4,1,4,4,4,4,4,2,2,3,2,2,2,2,2,2,2,3,4,2,2,3,1,2,2,1,1,3,1,4,3,3,3,2,2,2,3,3,2,2,3,1,1,1,1,1,1,1,1,1,1,1,1,1,1,1,1,1,1,1,1,1,1,1,1,1,1,1,1,1,1,1,1,4,4,1,1,5,5,5,5,5,3,3,5,3,3,5,5,5,5,5,5,1,1,1,1,1,2,1,1,1,1,1,2,1,2,2,2,3,3,5,1,2,2,2,1,3,1,4,1,3,3,2,2,5,3,4,3,2,4,3,4,4,4,5,5,3,5,5,1,1,2,3,4,4,2,3,1,1,3,3,3,1,2,2,2,4,2,1,2,3,3,4,3,3,4,4,3,3,3,3,3
"Serbia",1988,2,7,1,5,2,1,NA,0,2,NA,36.65,36.5,36.8,44.818603515625,57,6,6,1,1,3,1,4,2,4,4,8,3,8,8,1,NA,2,8,3,1,8,5,1,NA,1,NA,NA,NA,NA,NA,NA,NA,NA,NA,NA,4,5,5,5,4,3,5,1,3,5,5,4,2,1,2,2,2,1,2,2,2,2,2,2,3,1,1,2,2,1,3,2,1,1,1,4,3,3,1,3,1,1,1,1,1,1,1,2,1,2,1,2,1,2,2,7,1,NA,2,2,2,1,1,1,2,2,NA,3,NA,4,2,2,NA,NA,NA,NA,1,NA,2,4,4,NA,4,4,5,4,5,5,3,2,3,4,1,2,2,2,2,2,2,1,1,1,2,2,1,1,1,1,1,1,3,4,1,2,3,2,3,3,1,3,3,3,3,1,3,4,1,3,4,3,3,4,2,2,2,2,2,2,4,3,3,4,4,3,3,4,1,1,2,2,3,3,4,4,2,1,1,3,4,3,4,3,3,4,2,1,3,5,4,2,2,4,2,3,3,2,2,4,1
"METU",1988,2,7,1,3,2,1,10,2,2,NA,36.7,36.7,36.7,39.911697387695,66,4,3,2,2,1,NA,4,4,4,1,5,5,7,7,1,NA,2,8,3,1,8,4,1,NA,2,"korev",NA,NA,NA,NA,7,NA,NA,NA,NA,2,4,3,2,2,2,1,2,2,3,4,3,3,2,3,3,2,2,2,1,2,2,2,3,4,2,2,1,1,1,1,1,1,1,1,1,1,2,2,3,2,1,1,1,1,1,2,7,5,2,6,5,6,5,5,5,2,5,4,3,4,5,5,5,2,1,1,3,2,3,3,5,1,1,2,3,3,2,5,2,5,1,4,4,3,4,4,2,5,5,5,3,6,3,3,3,3,3,3,3,2,2,2,2,2,2,3,2,2,2,2,2,2,4,2,5,7,6,6,4,7,7,1,2,3,5,5,5,5,5,5,2,3,1,1,2,5,2,4,3,3,4,4,3,4,5,4,4,2,4,4,1,2,5,2,3,5,4,4,4,2,3,3,4,2,4,1,4,1,5,5,5,4,4,3,4,3,2,4
"Oxford",1988,2,4,1,3,2,2,0,2,2,NA,36.95,36.9,37,51.75,89,-1.666666667,5,1,1,1,NA,4,4,5,NA,1,NA,5,1,1,NA,1,NA,3,8,4,1,1,NA,2,NA,NA,NA,NA,NA,NA,NA,NA,NA,NA,2,4,2,1,1,2,1,2,3,4,3,2,2,3,3,4,2,3,2,3,2,3,3,4,3,3,2,2,4,3,2,3,2,3,4,4,1,1,2,3,2,2,2,1,2,4,2,3,6,6,5,4,4,3,3,4,4,6,5,6,5,5,5,6,5,5,5,5,4,3,4,6,3,3,4,5,3,4,5,3,2,3,4,5,4,5,5,4,2,2,4,4,2,5,3,4,5,2,4,2,3,4,5,3,4,2,4,4,3,2,2,4,2,4,3,5,4,3,1,2,2,2,4,2,3,3,4,4,3,3,3,2,2,2,2,4,4,5,2,2,2,3,3,3,4,4,2,2,3,2,4,3,4,3,2,4,3,4,3,4,3,2,3,2,3,4,3,2,3,4,4,4,5,3,3,3,2,2,4
"Oxford",1989,1,4,1,3,1,1,5,0,1,7,35.4,34.3,36.5,51.75,74,2.777777778,5,1,2,1,NA,2,2,5,NA,5,2,4,1,1,NA,2,4,1,NA,NA,3,1,NA,1,NA,NA,NA,NA,NA,NA,NA,NA,NA,NA,3,4,4,4,3,2,3,3,2,5,3,4,2,3,3,3,2,3,2,2,2,5,5,3,2,3,3,4,4,2,3,4,2,3,3,5,3,3,3,3,3,3,3,3,3,3,3,4,3,3,4,4,4,3,5,5,4,5,2,4,2,4,4,2,3,4,2,3,2,3,4,4,4,3,4,4,5,3,4,4,2,5,3,3,3,2,4,5,5,2,4,3,6,5,4,1,3,5,4,3,2,1,2,2,4,2,4,3,3,3,3,2,3,2,2,5,8,4,2,2,2,2,3,3,3,4,4,4,3,3,3,3,2,3,4,3,3,2,3,4,2,3,4,2,4,3,2,3,4,2,3,3,4,2,3,4,3,2,3,2,3,4,2,3,3,4,3,3,2,4,2,3,3,4,3,2,2,3,4
"METU",1989,2,7,2,3,2,1,3,0,2,NA,35.95,36.3,35.6,39.911697387695,64,2,3,2,2,1,NA,3,3,5,NA,8,5,7,5,1,NA,2,8,1,NA,NA,1,1,NA,1,NA,NA,NA,NA,NA,NA,NA,NA,NA,NA,4,4,3,4,4,3,2,2,3,4,3,3,4,3,3,3,4,3,3,3,3,4,3,4,3,3,3,3,2,2,2,3,2,2,2,2,3,2,3,4,3,2,2,2,2,2,2,4,4,4,4,4,4,4,4,4,4,4,4,4,4,4,4,4,4,5,4,4,4,4,4,4,4,4,4,4,4,4,4,4,4,4,4,5,5,5,5,5,3,4,3,2,6,6,6,5,5,6,5,3,4,2,4,4,3,4,3,2,4,3,3,3,2,3,3,5,6,6,2,3,2,3,4,2,5,4,1,3,2,2,2,4,4,2,4,4,3,4,3,3,2,3,3,4,3,3,4,3,4,3,3,4,3,2,3,3,4,3,4,3,2,3,4,4,4,3,2,3,3,3,3,4,4,3,3,3,3,4,2
"Chile",1989,1,6,1,4,2,1,0,0,1,NA,36.05,35.9,36.2,33.449996948242,79,12,2,1,2,1,NA,4,4,5,NA,8,4,7,4,1,NA,1,NA,4,1,2,5,1,NA,1,NA,NA,NA,NA,NA,NA,NA,NA,NA,NA,5,2,3,5,3,5,5,4,5,5,5,5,5,2,2,2,2,3,2,2,2,2,2,1,4,1,2,4,3,1,3,3,2,2,4,4,4,4,4,4,4,1,4,1,5,1,4,3,5,2,1,3,5,2,3,5,5,2,2,5,1,2,7,2,4,6,5,6,2,3,3,3,3,5,4,6,5,3,3,5,6,2,6,5,5,5,5,5,5,5,5,5,2,3,2,1,1,1,1,3,4,1,4,2,2,3,2,4,2,1,1,3,2,4,1,3,2,1,1,1,2,1,1,4,4,4,4,1,3,1,5,2,4,1,1,4,2,1,2,5,3,4,5,1,3,2,4,4,4,3,4,3,4,3,3,5,1,2,5,1,1,5,5,3,4,1,4,1,2,1,3,5,1,5,1,5,5,1,1
"METU",1989,1,6,1,4,2,1,59,NA,2,NA,36.05,36,36.1,39.911697387695,58,7,3,2,4,1,NA,4,4,4,1,1,NA,8,8,1,NA,2,1,3,1,5,1,1,NA,1,NA,NA,NA,NA,NA,NA,NA,NA,NA,NA,2,2,2,2,2,2,5,1,2,4,3,2,2,3,3,2,3,2,3,3,3,4,5,2,2,3,2,2,3,4,4,5,3,2,1,4,4,4,4,4,4,1,1,2,2,2,4,6,2,2,3,2,7,3,5,3,2,6,2,2,6,2,6,2,1,2,2,2,2,2,1,1,2,2,3,2,1,2,2,2,2,2,2,4,2,4,4,2,4,4,4,4,4,6,6,6,5,5,5,2,3,4,3,4,2,4,2,2,2,2,2,1,2,2,2,5,6,1,1,3,2,2,3,3,4,4,2,2,2,2,2,4,2,1,4,3,3,2,2,4,4,4,4,3,4,4,4,5,2,4,4,2,2,4,1,2,2,4,2,2,3,2,4,4,2,3,2,4,2,4,4,4,1,4,2,2,3,2,2
"Oxford",1989,1,7,1,3,2,1,0,0,2,NA,36.2,35.8,36.6,51.75,71,1.666666667,5,1,2,1,NA,4,4,4,1,6,2,3,3,1,NA,2,2,1,NA,NA,1,1,NA,1,NA,NA,NA,NA,NA,NA,NA,NA,NA,NA,1,2,1,2,4,3,2,1,4,2,2,4,3,4,3,4,2,3,2,4,4,4,2,3,4,4,3,5,4,4,4,4,4,5,5,5,4,3,4,4,4,4,2,4,5,4,4,4,3,3,4,4,3,4,3,3,3,3,5,7,2,3,3,4,4,3,3,3,3,2,4,4,3,4,4,3,2,3,5,3,2,2,2,5,4,4,5,4,4,4,5,5,5,6,6,5,5,5,3,4,5,2,3,2,3,4,3,5,4,4,3,3,3,5,3,3,4,3,3,2,3,3,4,4,2,4,2,3,4,4,2,4,2,2,2,4,4,4,4,5,1,2,4,4,3,4,3,4,4,4,4,3,3,4,4,3,4,4,3,4,4,4,3,4,4,3,3,3,4,4,3,4,4,4,2,2,3,3,4
"METU",1989,2,7,1,4,2,1,NA,NA,2,NA,36.25,36.1,36.4,39.923004150391,52,3,3,2,2,1,NA,4,4,4,1,5,1,6,3,1,NA,1,NA,3,1,8,1,1,NA,1,NA,NA,NA,NA,NA,NA,NA,NA,NA,NA,4,4,4,4,3,4,3,2,3,5,5,3,3,4,3,4,1,2,1,2,3,3,1,4,3,3,2,2,2,2,1,1,1,2,1,1,4,3,4,4,4,1,1,1,1,1,4,6,2,1,5,6,5,6,2,2,4,2,5,2,4,1,6,1,1,2,2,3,2,2,2,2,3,2,1,2,2,2,2,3,3,2,2,5,5,5,5,5,5,5,5,5,3,4,4,3,4,3,3,4,2,2,2,2,2,4,2,3,2,4,2,4,1,3,1,4,4,5,2,2,1,1,1,4,5,5,2,5,5,5,5,4,2,1,5,2,4,4,5,5,5,4,2,2,5,5,5,5,5,5,5,5,1,3,1,2,2,4,5,2,1,3,5,5,3,5,1,5,2,4,5,5,4,4,2,4,2,2,4
"Portugal",1989,1,1,2,4,2,1,36,0,2,NA,36.25,36.4,36.1,38.716705322266,73,13,8,1,3,1,NA,2,2,5,1,8,8,3,3,2,1,2,8,3,1,8,8,1,NA,1,NA,NA,NA,NA,NA,NA,NA,NA,NA,NA,5,5,5,1,1,5,5,5,5,5,5,5,5,2,2,3,2,1,1,1,2,1,1,3,5,1,2,3,4,3,4,2,3,2,3,2,4,3,2,3,4,1,1,1,2,2,2,1,1,1,3,1,3,3,3,7,1,5,1,1,3,3,1,3,3,6,5,3,7,1,3,3,1,1,2,2,7,4,3,7,7,1,5,5,3,5,5,5,3,3,5,3,4,7,7,7,7,7,7,1,5,1,2,1,1,1,1,4,1,1,3,3,1,4,1,1,2,1,1,1,3,1,4,1,2,5,3,3,3,3,2,1,2,3,3,4,1,5,2,2,4,5,4,3,3,2,1,3,4,3,2,1,1,1,3,1,3,5,1,2,1,1,1,5,3,3,2,3,4,3,5,2,2,1,1,2,3,3,1
"Tsinghua",1989,1,5,1,3,2,1,0,0,2,0,36.3,36.2,36.4,39.928894042969,22,8,7,3,1,1,0,4,1,5,0,3,1,3,8,1,1,2,8,1,1,7,1,2,1,2,NA,NA,NA,NA,NA,NA,NA,NA,NA,NA,4,5,5,4,4,4,3,4,2,5,4,4,2,4,4,4,3,2,2,3,3,3,3,4,4,2,4,4,2,2,4,4,4,2,4,4,4,4,4,4,4,4,3,4,2,2,4,5,2,2,6,6,2,2,3,2,2,6,3,2,3,2,3,3,3,5,2,2,2,6,2,2,2,2,3,2,5,2,2,3,5,2,2,4,4,4,4,4,4,4,4,4,6,2,2,6,6,6,6,2,2,4,2,2,4,2,2,2,2,2,2,2,2,3,2,4,2,6,2,2,1,2,2,2,4,4,2,2,2,2,2,4,4,2,4,4,2,2,2,2,2,2,4,4,2,2,2,4,4,2,4,4,2,2,2,4,4,4,4,2,2,4,4,4,4,2,2,4,2,2,2,4,2,4,2,4,4,2,2
"Oxford",1989,2,6,1,3,2,1,0,0,2,NA,36.4,36.5,36.3,51.75,74,2.777777778,5,1,1,1,NA,4,4,4,1,4,3,4,3,1,NA,2,4,1,NA,NA,3,1,NA,1,NA,NA,NA,NA,NA,NA,NA,NA,NA,NA,4,3,3,3,2,3,2,2,2,4,4,2,3,3,3,3,3,2,2,2,3,2,4,4,5,2,3,2,2,2,2,2,2,4,2,4,4,2,4,2,4,2,2,2,2,2,2,4,4,2,5,6,3,4,5,2,2,3,5,3,3,3,6,5,6,3,2,5,2,3,3,3,2,3,2,2,3,2,3,5,5,2,2,4,5,4,4,4,4,4,4,4,3,5,5,3,2,2,3,2,4,4,3,2,4,4,2,4,2,2,2,4,2,2,2,5,7,6,1,4,1,4,3,3,2,4,2,4,4,3,4,4,2,2,2,4,4,2,3,4,4,4,4,4,4,4,4,4,3,3,4,3,2,3,2,4,4,4,2,3,2,4,2,4,4,2,2,4,4,3,3,3,2,4,4,3,3,2,3
"Oxford",1989,2,7,1,4,2,1,1,0,2,NA,36.4,36,36.8,51.75,88,-2.222222222,5,1,4,1,NA,4,2,4,1,1,NA,8,8,1,NA,2,4,1,NA,NA,1,1,NA,1,NA,NA,NA,NA,NA,NA,NA,NA,NA,NA,4,2,2,3,2,2,2,2,2,2,4,4,4,2,2,3,2,1,1,1,2,2,1,3,5,1,3,2,4,2,4,2,2,3,2,3,2,3,2,2,1,1,1,1,2,2,2,2,2,2,2,2,2,1,3,6,2,6,2,1,2,2,1,2,1,2,2,2,2,2,1,2,1,6,2,2,2,1,2,2,2,2,2,4,4,4,4,2,2,2,2,2,2,3,3,3,3,4,2,2,2,2,2,2,1,2,2,2,2,1,2,3,2,4,3,4,3,3,3,3,2,2,2,4,4,4,2,4,4,4,4,4,4,1,4,4,4,3,2,4,2,4,5,3,3,3,4,4,2,2,3,2,1,3,2,3,2,4,2,3,2,3,3,2,2,2,2,2,4,4,4,2,4,4,2,4,4,4,4
"Oxford",1989,1,1,1,4,2,1,1,0,1,1,36.4,36.3,36.5,51.75,71,1.666666667,5,1,1,1,NA,4,4,4,3,4,3,8,8,1,NA,1,NA,2,1,2,2,1,NA,1,NA,NA,NA,NA,NA,NA,NA,NA,NA,NA,1,3,3,2,1,2,1,2,1,2,3,3,4,3,2,3,2,1,2,3,4,1,2,4,5,2,3,2,4,4,4,2,1,3,3,5,4,2,5,4,4,1,2,2,1,1,4,3,3,1,4,2,7,1,3,2,1,5,3,4,6,5,2,5,2,1,1,3,3,2,2,2,2,1,1,2,1,1,2,5,3,5,2,5,4,4,3,5,5,3,4,5,6,6,7,7,7,5,6,2,2,3,2,3,2,2,1,2,2,1,2,1,1,2,1,4,7,4,3,4,3,5,4,2,5,5,4,3,4,2,2,5,2,1,4,3,3,4,2,4,5,4,4,1,5,4,4,4,4,5,4,4,1,2,2,2,2,5,2,4,1,2,2,4,2,4,3,4,3,4,5,4,3,2,2,3,4,1,2
"Kassel",1989,2,4,2,4,2,1,0,0,2,NA,36.415,36.42,36.41,50.097702026367,91,2,1,1,2,1,NA,4,2,5,NA,2,1,3,2,1,NA,2,4,3,1,2,1,2,2,1,NA,NA,NA,NA,NA,NA,NA,NA,NA,NA,5,4,4,4,4,4,3,4,4,3,5,4,4,2,3,3,2,2,2,2,3,2,2,3,4,2,2,3,3,2,4,2,2,3,3,3,4,3,2,3,3,2,2,2,3,1,3,5,4,4,5,6,5,4,4,5,3,4,4,4,4,4,3,6,3,4,3,6,3,3,3,2,4,4,2,2,4,3,3,6,4,2,4,4,4,4,4,3,4,4,4,3,7,5,6,6,5,5,5,2,4,2,3,3,2,3,3,2,2,2,2,2,1,3,1,5,6,5,2,4,6,6,1,3,1,5,4,3,1,2,4,2,2,1,1,3,4,2,3,3,1,4,4,4,3,3,4,4,3,3,4,3,2,2,2,2,2,3,3,3,4,3,3,4,3,2,3,4,4,3,2,3,2,3,2,3,3,2,4
"Chile",1989,2,7,1,3,2,1,2,0,1,NA,36.45,36.4,36.5,40.754501342773,21,13,2,1,1,1,NA,4,2,4,1,1,NA,1,1,1,NA,2,3,4,1,2,2,1,NA,1,NA,NA,NA,NA,NA,NA,NA,NA,NA,NA,4,2,4,3,2,4,1,3,2,2,5,4,5,4,3,3,3,2,4,3,2,2,4,3,4,3,2,4,4,3,4,2,1,2,2,2,4,4,4,4,4,1,1,1,4,1,4,1,1,1,6,1,6,2,2,2,2,1,2,1,1,1,5,5,2,5,3,3,2,1,2,1,2,1,1,1,2,1,2,6,3,1,3,4,5,4,5,5,3,3,2,4,5,5,5,7,6,5,5,3,1,1,1,3,4,1,1,1,2,2,3,2,1,1,1,4,4,5,1,3,3,2,1,4,3,5,2,2,2,2,5,5,2,1,4,4,2,2,4,4,1,3,5,5,4,4,4,4,4,3,4,4,1,1,4,1,5,4,4,1,2,5,4,2,4,3,3,1,4,3,3,2,4,1,2,1,3,2,4
"Chile",1989,2,7,1,2,2,1,0,0,1,NA,36.5,36,37,40.908294677734,67,8,2,1,1,1,NA,4,2,4,1,1,NA,1,1,1,NA,2,2,4,2,2,2,1,NA,1,NA,NA,NA,NA,NA,NA,NA,NA,NA,NA,4,2,3,5,3,4,1,4,2,2,5,3,5,4,2,4,4,4,2,4,3,2,4,3,5,3,3,2,3,2,4,2,2,3,4,4,5,5,5,5,5,2,3,3,5,4,5,1,1,1,1,2,1,2,3,2,2,5,1,1,1,1,6,5,3,5,2,6,2,7,1,1,1,1,1,1,2,1,1,7,3,1,2,5,5,5,5,5,3,2,4,4,6,7,5,6,6,5,5,3,1,2,1,2,3,4,1,1,2,2,2,2,1,1,1,4,4,4,3,3,4,4,1,5,2,4,3,2,2,2,4,4,2,1,3,3,4,2,4,4,2,4,5,5,4,4,4,4,4,3,4,4,1,1,4,2,5,5,5,1,3,5,4,4,5,2,3,5,5,2,3,2,4,2,2,2,4,2,4
"METU",1989,2,5,1,4,2,1,0,0,1,15,36.5,36.3,36.7,39.911697387695,74,12,3,2,2,1,NA,4,4,4,4,5,3,8,4,1,NA,2,8,1,NA,NA,1,1,NA,1,NA,NA,NA,NA,NA,NA,NA,NA,NA,NA,4,2,4,4,3,2,1,3,4,4,3,3,2,3,4,4,3,2,2,3,3,3,2,4,3,2,3,3,4,2,4,3,2,4,3,5,4,4,4,4,4,4,4,3,4,2,4,7,4,4,5,3,6,4,6,4,3,4,4,2,4,2,5,4,2,7,5,6,3,5,3,4,2,4,3,4,3,3,5,2,2,2,2,5,4,4,5,5,4,5,5,5,6,4,6,5,7,4,5,5,3,1,2,2,2,2,2,2,1,5,2,4,2,1,2,4,4,5,2,4,2,2,4,2,5,4,1,1,2,4,1,5,5,4,4,5,1,5,1,4,4,4,4,4,3,2,2,5,5,3,4,4,1,1,1,1,4,3,5,4,1,2,2,4,3,1,4,4,4,3,4,4,3,2,2,4,3,2,2
"Tsinghua",1989,2,7,1,3,2,1,6,0,2,0,36.55,36.4,36.7,39.928894042969,51,7,7,3,2,1,0,4,4,5,0,7,3,5,5,2,6,2,8,2,3,3,2,2,1,1,"Ó°ÃÔÍÅÌå",NA,NA,NA,NA,3,NA,NA,NA,NA,3,2,2,5,3,5,2,4,3,4,3,2,5,3,3,3,3,3,3,3,3,3,4,3,3,3,2,4,4,4,4,4,4,4,4,4,3,4,2,4,2,4,4,4,3,3,3,5,2,3,3,4,5,5,5,3,2,3,2,5,2,5,4,6,2,2,3,5,3,5,3,5,4,5,4,4,6,3,6,3,5,5,3,3,3,4,4,2,4,4,4,3,4,2,4,6,6,6,6,2,4,2,2,3,2,4,2,3,2,2,2,1,2,3,1,5,7,6,6,6,6,3,2,4,4,4,2,2,3,2,3,4,3,2,4,4,3,2,4,4,2,2,5,5,3,4,3,4,3,3,3,2,3,4,3,4,4,4,4,3,1,4,4,4,4,3,2,4,4,4,4,5,4,4,4,4,4,2,4
"Kassel",1989,2,7,1,4,2,1,26,0,2,NA,36.6,36.5,36.7,51.199996948242,88,0,1,1,2,1,NA,4,2,5,NA,4,3,6,6,2,1,2,8,1,NA,NA,3,1,NA,2,"Kraftsportgruppe","Ausdauersportgruppe","Hundetreffgruppe","Keine","Keine",4,4,3,0,0,3,3,3,3,5,3,4,4,4,3,5,5,3,2,2,3,2,1,1,1,3,2,1,2,5,1,1,3,2,1,4,3,1,3,4,2,3,1,3,2,1,1,2,1,2,1,3,3,1,1,4,5,1,1,1,1,1,1,1,1,4,2,1,1,1,1,1,1,2,1,1,1,1,1,1,2,1,2,1,7,7,1,1,5,4,4,5,5,5,1,5,5,2,2,2,3,2,2,2,1,2,1,2,1,1,1,2,1,1,2,4,2,1,3,3,5,5,4,5,2,4,4,1,5,3,3,1,3,3,1,3,5,4,1,3,5,5,2,1,4,2,4,3,5,4,5,5,5,3,2,4,3,1,1,1,3,1,3,4,1,5,2,4,2,1,1,3,3,4,4,3,2,2,2,4,2,4,1,1
"Poland",1989,2,7,1,3,2,1,2,4,2,NA,36.75,37,36.5,50.350006103516,65,-2,9,1,4,1,NA,4,4,4,1,5,5,3,3,1,NA,2,8,6,1,2,2,1,NA,1,NA,NA,NA,NA,NA,NA,NA,NA,NA,NA,4,4,2,4,5,3,2,4,3,2,4,4,2,3,3,4,4,3,3,3,3,3,4,5,4,5,4,4,2,2,4,3,1,2,4,4,4,4,4,4,4,1,1,1,2,2,4,6,6,5,6,6,6,2,5,5,1,1,3,2,2,5,5,6,1,3,3,7,2,2,5,5,7,5,2,2,6,6,5,2,7,5,2,4,4,2,4,4,4,3,4,4,5,5,4,4,6,5,5,2,2,4,3,4,4,4,2,4,2,1,2,2,2,2,2,5,6,5,2,4,4,4,1,4,1,5,2,4,2,3,4,5,3,1,3,5,5,2,4,4,3,3,4,4,4,4,3,3,3,2,4,3,3,2,2,1,1,4,1,3,4,4,5,4,4,1,2,1,4,4,4,2,4,4,2,3,4,1,2
"METU",1989,2,6,1,4,2,1,0,0,2,NA,36.75,36.8,36.7,39.911697387695,52,8,3,2,1,1,NA,4,4,4,2,1,NA,7,5,1,NA,2,8,2,1,8,8,2,8,1,NA,NA,NA,NA,NA,NA,NA,NA,NA,NA,2,4,5,4,5,5,2,5,2,3,5,5,5,3,3,2,2,2,3,2,4,2,2,3,2,3,3,4,4,4,4,4,1,4,1,1,5,2,5,5,5,2,2,2,2,2,5,6,2,1,2,3,1,2,2,5,1,5,1,1,1,1,3,1,1,2,3,2,2,1,5,3,2,2,2,3,2,2,3,3,2,2,3,4,4,4,4,4,4,3,4,4,3,3,3,3,3,3,3,1,1,1,2,1,2,1,1,1,1,1,2,1,2,1,2,5,8,5,1,2,1,1,2,2,4,4,1,4,2,4,4,5,5,1,2,4,4,1,4,4,4,4,2,2,4,5,5,5,5,5,5,5,1,1,1,2,4,3,5,2,2,4,2,4,2,2,1,2,2,5,5,5,1,5,4,5,4,1,2
"Kassel",1989,2,7,1,3,2,1,37,4,2,NA,36.8,36.7,36.9,48.966705322266,83,5,1,1,1,1,NA,4,4,4,1,6,2,5,3,2,1,1,NA,3,8,8,5,1,NA,1,NA,NA,NA,NA,NA,NA,NA,NA,NA,NA,2,3,4,5,1,2,1,2,3,3,4,2,4,3,3,4,2,2,2,3,4,3,4,5,5,2,4,1,4,1,4,1,1,1,1,1,4,4,1,4,1,1,1,1,1,1,2,2,2,1,2,1,1,2,1,1,1,2,1,1,5,1,2,1,1,1,1,5,1,1,1,1,1,1,1,1,1,1,1,5,5,1,2,4,5,5,5,5,5,1,3,2,6,5,5,5,5,4,5,1,1,1,1,1,1,1,1,1,1,2,1,2,2,1,1,5,8,7,7,6,2,5,2,4,3,3,1,3,2,1,3,5,4,1,4,5,2,4,2,4,5,5,3,2,4,5,5,5,5,4,5,5,1,1,1,3,1,4,4,1,1,4,4,5,1,3,1,4,4,4,4,5,1,2,5,5,3,1,5
"Bamberg",1989,2,7,2,2,2,1,4,2,2,NA,37.15,37,37.3,49.300003051758,86,1,1,1,2,1,NA,4,4,5,NA,3,1,5,4,2,2,2,6,1,NA,NA,1,2,4,2,"Fachschaft",NA,NA,NA,NA,4,NA,NA,NA,NA,1,1,3,3,2,3,1,2,3,2,4,3,4,5,5,5,4,3,4,4,5,3,4,4,5,3,4,1,4,1,1,3,2,4,1,3,3,2,1,2,2,1,1,1,1,1,4,4,3,6,5,5,5,2,7,5,5,6,7,1,4,7,4,7,4,5,3,4,4,6,5,4,5,6,3,4,5,5,5,7,7,2,6,5,4,4,4,4,3,1,3,3,6,7,7,7,6,5,6,3,4,2,4,3,4,4,3,4,5,3,2,2,2,5,2,4,5,6,5,4,4,4,4,2,3,4,4,1,3,1,2,3,2,1,2,2,2,3,4,1,1,4,3,4,4,3,3,1,2,1,1,1,1,1,2,2,3,4,3,2,3,3,4,3,4,3,3,5,5,2,2,2,2,2,4,3,3,4,3
"Bamberg",1989,2,7,1,3,2,1,1,0,1,7,37.15,37.3,37,48.11669921875,67,5,1,1,1,1,NA,4,4,4,2,3,1,6,3,2,1,2,6,3,1,7,2,1,NA,1,NA,NA,NA,NA,NA,NA,NA,NA,NA,NA,5,4,4,5,2,3,4,4,4,3,4,5,3,4,3,4,3,2,3,3,4,3,3,4,4,2,2,4,4,2,4,2,2,2,2,4,4,4,2,4,2,2,4,4,2,4,2,1,1,1,1,4,1,1,1,7,1,7,1,1,1,1,4,1,1,1,1,4,1,1,1,1,2,1,1,1,1,2,1,7,4,1,1,5,5,5,5,5,5,5,5,5,3,1,3,1,1,2,3,2,2,2,2,2,2,2,2,2,2,2,2,2,2,4,2,5,8,4,3,2,3,7,3,3,1,5,5,3,3,3,4,2,2,2,2,3,2,2,5,5,2,4,3,5,4,5,5,5,3,3,5,5,1,3,3,1,5,3,4,2,2,3,4,4,4,3,2,4,4,3,4,3,2,4,2,2,4,3,3
"Tsinghua",1989,1,7,2,2,2,1,0,0,2,0,37.2,37.2,37.2,39.928894042969,22,8,7,3,2,1,0,2,2,5,0,3,3,5,5,2,8,1,2,3,1,3,3,2,1,2,"½Ì»á","¹«Ë¾²¿ÃÅ","Ð£Ô°ÍÅÆõ",NA,NA,10,15,8,NA,NA,3,3,4,2,3,2,2,1,3,2,4,3,4,3,3,2,3,3,3,4,2,4,3,3,3,3,2,2,2,2,2,3,3,4,4,4,4,4,3,4,3,4,3,4,3,3,4,3,3,5,5,5,3,4,4,5,5,3,4,4,3,5,3,6,4,4,3,3,4,4,2,3,5,4,3,4,4,4,3,5,3,5,3,3,4,4,3,4,4,4,3,4,4,2,2,5,5,5,6,4,2,4,4,4,4,4,4,4,4,2,2,2,4,4,2,4,4,4,2,3,2,3,2,2,2,4,4,3,2,2,3,2,4,4,2,3,4,2,2,2,2,2,4,4,2,2,2,4,4,4,4,3,2,2,3,4,4,3,2,4,3,2,4,2,3,2,4,4,4,2,2,3,2,4,2,4,4,4,2
"Poland",1989,2,7,1,4,2,1,36,0,2,NA,38.1,38.1,38.1,54.360794067383,81,3,9,1,1,1,NA,4,4,4,4,8,8,6,6,1,NA,2,3,2,1,1,1,1,NA,2,"p?ywanie",NA,NA,NA,NA,1,NA,NA,NA,NA,2,2,4,5,4,4,2,2,2,4,3,3,3,2,3,3,4,4,4,4,3,4,3,3,4,5,3,3,3,2,3,1,2,2,2,1,3,4,4,3,4,1,1,1,2,2,3,2,2,1,2,5,3,2,2,2,1,7,2,2,3,1,5,4,2,2,2,5,2,2,2,2,2,6,2,2,3,4,2,6,4,2,3,4,4,4,5,4,3,2,2,2,3,2,1,2,3,3,2,2,3,1,3,3,2,3,2,3,2,2,2,2,2,2,2,4,6,5,2,3,2,2,4,4,2,4,3,4,3,2,4,3,4,2,3,4,4,2,4,2,2,4,3,4,2,5,4,4,4,4,4,4,1,1,2,1,2,2,2,2,3,3,2,3,4,4,2,3,3,3,3,4,3,4,4,4,4,2,4
"Oxford",1990,1,7,1,3,2,1,1.14,0,2,NA,35.4,34.6,36.2,51.75,89,-1.666666667,5,1,2,1,NA,4,4,4,1,2,2,5,1,1,NA,1,NA,3,1,8,5,1,NA,1,NA,NA,NA,NA,NA,NA,NA,NA,NA,NA,2,2,3,4,2,3,2,2,2,3,4,2,5,2,3,3,3,2,2,2,2,2,2,2,4,3,1,1,1,1,2,1,1,2,1,2,2,2,1,2,1,1,1,1,1,1,1,1,2,2,2,2,2,2,2,2,2,6,4,2,2,1,2,1,1,3,5,3,3,3,1,2,3,3,3,6,6,3,2,3,3,3,3,4,4,4,4,4,4,2,4,4,3,4,2,2,4,4,2,2,3,1,4,1,2,3,2,2,2,1,2,2,3,3,4,3,2,2,2,2,3,1,2,4,4,4,2,2,2,2,2,4,3,2,2,4,2,2,4,3,1,4,4,2,4,4,3,4,4,4,2,2,2,2,2,2,2,2,4,5,2,3,2,4,1,2,4,4,4,4,3,3,4,5,2,2,2,2,1
"Oxford",1990,1,7,1,5,2,1,3,0,2,NA,35.4,34.6,36.2,51.75,71,1.666666667,5,1,2,1,NA,4,4,4,1,1,NA,2,2,1,NA,2,8,1,NA,NA,2,1,NA,1,NA,NA,NA,NA,NA,NA,NA,NA,NA,NA,3,2,4,5,4,4,3,3,4,4,4,3,4,4,2,2,1,2,2,2,2,1,2,1,4,3,1,1,4,1,4,2,1,2,4,1,2,2,2,2,1,1,1,1,1,1,2,1,1,1,1,1,2,1,2,1,1,1,1,1,2,2,1,5,1,2,2,2,2,2,2,2,7,1,2,2,1,1,2,1,2,3,1,4,5,4,5,5,4,4,5,4,3,3,2,2,1,2,2,2,2,1,3,2,2,2,2,2,2,2,2,2,4,4,3,2,2,1,1,2,2,1,4,2,4,4,4,1,2,2,2,2,1,2,4,2,2,4,2,3,2,3,4,5,3,3,2,3,3,2,3,3,1,1,1,1,2,4,4,1,2,2,3,2,2,1,5,3,2,1,1,2,2,1,1,1,2,2,1
"METU",1990,1,4,2,4,2,1,NA,NA,2,NA,35.65,35.6,35.7,39.911697387695,78,8,3,2,2,1,NA,2,2,4,1,1,NA,5,2,1,NA,2,2,1,NA,NA,1,1,NA,1,NA,NA,NA,NA,NA,NA,NA,NA,NA,NA,4,2,2,2,3,2,2,3,1,2,2,2,3,4,4,4,4,3,3,4,4,4,3,3,4,4,4,2,1,1,2,2,1,2,2,2,3,2,2,2,3,2,2,2,2,2,2,6,4,3,6,6,6,6,7,5,2,5,6,6,4,1,6,5,2,4,6,3,6,6,6,3,6,6,3,4,4,3,6,5,5,2,4,5,4,4,4,4,4,5,4,4,7,6,6,6,7,7,6,3,4,4,4,4,4,4,3,2,3,3,4,4,2,4,3,5,6,6,3,2,2,4,4,2,5,4,2,3,4,3,2,5,5,4,4,2,3,3,2,4,2,4,5,4,3,4,2,4,4,3,4,3,2,3,2,2,2,4,4,4,2,4,2,4,4,4,3,4,3,3,2,5,2,4,4,4,4,3,4
"Kassel",1990,2,6,1,4,2,1,10,0,2,NA,35.65,35.4,35.9,51.315200805664,56,0,1,1,1,3,3,4,4,4,2,7,4,4,4,1,NA,2,4,1,NA,NA,4,1,NA,1,NA,NA,NA,NA,NA,NA,NA,NA,NA,NA,3,4,5,3,3,4,5,4,3,5,4,4,5,4,3,4,2,2,2,3,2,3,2,5,5,3,3,3,5,3,4,2,1,3,3,3,4,4,3,4,3,2,3,3,3,2,3,4,3,2,4,4,4,3,3,4,1,4,6,2,2,2,5,4,2,1,1,3,4,2,1,1,1,1,1,3,1,1,1,4,4,1,3,5,5,4,5,5,4,3,5,5,5,5,6,6,6,6,6,1,2,1,2,3,2,1,1,2,1,1,2,2,5,3,1,4,8,6,3,5,3,3,3,4,3,5,4,3,3,3,3,3,2,2,2,2,3,1,2,4,3,4,3,4,4,4,4,5,3,4,5,3,1,2,1,2,2,4,3,2,2,3,3,3,4,3,2,3,4,4,5,5,2,3,4,4,4,2,2
"METU",1990,2,5,2,3,2,1,2,3,1,10,35.7,35.6,35.8,39.911697387695,74,12,3,2,2,1,NA,4,2,5,NA,8,6,8,8,1,NA,2,8,1,NA,NA,1,1,NA,1,NA,NA,NA,NA,NA,NA,NA,NA,NA,NA,3,2,2,2,2,2,1,1,2,2,3,2,2,4,3,4,3,3,3,3,4,3,3,3,4,3,3,1,3,1,1,3,3,3,1,3,3,3,4,3,4,2,2,2,1,2,4,4,4,4,5,4,3,4,5,4,4,3,2,5,1,4,4,4,3,5,5,5,5,5,4,5,5,5,3,5,3,3,6,4,5,4,4,4,3,4,4,3,3,3,4,4,4,5,5,5,5,5,5,3,4,2,4,4,3,4,4,4,4,3,3,4,3,3,3,4,5,5,2,3,2,2,3,2,3,4,3,2,5,4,2,4,3,2,2,3,4,3,3,3,2,2,3,4,3,2,2,3,3,3,3,3,2,2,2,2,4,4,4,3,2,3,4,3,4,2,3,3,2,2,3,2,3,3,3,2,2,2,3
"Kassel",1990,1,5,2,3,2,1,0,0,1,10,35.8,35.5,36.1,51.287796020508,68,7,1,1,2,1,NA,4,4,5,NA,6,4,7,4,2,1,2,8,3,8,8,4,1,NA,1,NA,NA,NA,NA,NA,NA,NA,NA,NA,NA,2,2,3,2,2,3,1,2,2,4,4,2,2,3,3,3,2,2,3,2,3,3,3,2,4,2,3,3,4,2,4,2,3,4,1,4,4,4,2,3,3,2,3,2,2,1,3,6,4,4,5,4,5,3,5,6,2,6,4,4,2,3,6,5,2,1,2,6,1,1,1,1,1,1,2,2,3,3,1,4,3,2,4,4,4,4,4,4,3,3,4,4,5,5,5,6,4,4,4,2,3,4,2,2,4,4,4,3,2,3,1,2,2,2,2,5,6,5,3,2,2,5,4,4,2,4,4,4,2,3,3,4,3,2,2,3,4,2,2,2,4,5,4,3,4,4,4,4,3,3,4,2,1,3,3,3,1,4,2,4,3,2,3,4,2,3,2,3,2,3,4,3,1,2,4,3,2,3,2
"Southampton",1990,1,6,2,5,2,1,0,0,2,NA,35.85,35.9,35.8,50.917098999023,60,3,5,1,2,1,NA,4,4,5,NA,2,2,6,2,1,NA,2,8,1,NA,NA,1,1,NA,1,NA,NA,NA,NA,NA,NA,NA,NA,NA,NA,2,2,3,1,2,2,2,1,3,4,4,3,3,2,2,3,2,2,2,3,2,3,2,3,4,2,2,2,4,1,4,2,2,2,2,3,3,3,2,3,1,1,2,1,3,1,2,4,4,4,4,4,4,4,4,4,4,4,4,4,4,4,4,4,4,4,4,4,4,4,4,4,4,4,4,4,4,4,4,4,4,4,4,5,5,5,5,4,4,4,3,3,6,6,5,5,6,6,5,3,2,1,3,2,1,2,3,1,2,1,3,2,2,3,2,4,2,4,1,2,2,1,4,4,4,4,3,2,2,3,3,4,3,2,4,4,3,3,2,2,3,4,4,2,3,3,3,3,3,3,3,3,3,3,3,2,3,4,4,2,2,3,3,4,3,2,3,4,2,2,2,4,2,2,2,3,2,2,2
"Poland",1990,2,6,2,3,2,1,2,1,1,15,35.95,36,35.9,54.5,79,3,9,1,2,1,NA,4,4,5,NA,8,2,4,2,2,1,2,8,2,1,1,1,1,NA,1,NA,NA,NA,NA,NA,NA,NA,NA,NA,NA,2,1,2,4,2,4,2,1,1,1,5,2,2,3,2,3,4,4,4,4,3,4,4,2,3,3,2,4,4,4,3,1,2,2,4,2,5,2,4,2,2,1,4,4,4,1,3,5,5,4,5,3,5,2,5,3,1,3,2,5,2,2,6,6,1,3,3,7,1,1,2,5,5,5,3,3,3,3,5,7,6,2,4,5,5,5,5,5,2,2,5,5,4,5,5,5,6,4,4,3,2,1,2,1,2,3,2,1,2,2,4,2,1,2,1,4,5,4,6,4,6,5,2,2,4,4,2,2,1,4,2,4,4,4,3,4,4,2,3,2,2,4,5,5,5,4,4,3,5,4,3,4,3,2,3,1,4,5,5,4,4,2,2,5,2,1,1,5,5,3,3,4,5,2,2,4,2,1,4
"Oxford",1990,2,7,1,4,2,1,2,0,2,NA,35.95,35.5,36.4,51.75,71,1.666666667,5,1,2,1,NA,4,2,5,NA,2,2,6,2,1,NA,2,8,1,NA,NA,3,2,1,2,"OUSU","Chapel Choir",NA,NA,NA,9,3,NA,NA,NA,3,3,5,3,4,4,3,3,3,4,4,4,4,2,4,3,2,2,1,3,2,2,2,4,5,1,2,3,3,2,4,3,2,4,2,4,4,4,4,4,4,1,1,1,1,1,4,1,1,1,5,1,1,1,1,1,1,1,1,6,1,1,1,1,1,1,1,1,2,2,2,2,1,2,1,1,3,2,2,2,2,2,1,5,5,5,5,4,5,5,4,4,5,4,4,4,5,5,5,2,3,1,1,2,2,3,1,1,2,1,1,1,1,3,2,4,5,5,2,3,1,1,2,5,5,5,1,4,1,3,3,5,3,1,5,4,3,2,2,3,4,2,4,3,5,4,4,4,3,4,4,4,1,1,2,2,3,5,1,3,1,1,4,4,1,3,2,4,4,3,3,4,2,5,4,5,3,1,4
"Oslo",1990,2,6,2,4,2,1,1,0,2,NA,36,35.6,36.4,59.912704467773,69,-4,4,1,2,1,NA,4,4,5,NA,3,2,7,6,1,NA,2,8,3,1,8,1,1,NA,2,"Kor","Trening",NA,NA,NA,7,2,0,0,0,5,3,4,4,4,4,3,4,4,3,4,4,3,2,2,3,1,1,1,3,3,2,2,1,4,2,3,3,4,1,4,1,1,2,4,4,5,2,3,4,2,1,1,1,1,1,3,4,3,2,3,4,3,2,4,3,2,2,2,1,4,2,1,4,1,2,1,3,1,1,1,1,2,1,3,2,3,2,1,4,4,1,2,4,3,5,5,5,3,2,4,3,6,3,3,3,6,3,5,2,2,1,3,2,1,3,3,3,1,1,2,2,1,2,1,4,6,3,2,2,3,4,3,5,3,4,1,2,4,4,1,5,3,1,3,2,2,4,2,3,5,4,4,1,5,5,5,5,5,5,4,4,1,1,3,3,2,4,2,3,1,2,2,4,2,3,3,5,4,4,4,4,1,3,4,3,3,3,3
"SMU",1990,1,5,1,3,2,1,4,0,2,NA,36,35.8,36.2,1.2931060791016,70,27,5,1,2,1,NA,4,4,5,NA,1,NA,8,6,2,2,2,8,1,NA,NA,2,1,NA,1,NA,NA,NA,NA,NA,NA,NA,NA,NA,NA,2,1,3,4,3,4,2,4,1,3,4,2,4,3,4,4,3,3,3,2,4,3,2,5,4,2,3,4,4,3,4,2,3,5,3,2,5,4,4,3,2,2,2,2,2,3,3,6,3,2,5,2,3,6,2,2,2,3,4,3,2,5,5,6,2,2,1,2,2,1,2,2,1,2,1,1,1,1,1,2,1,1,1,5,4,5,4,5,5,5,5,4,6,6,7,7,6,6,6,2,2,2,2,2,4,4,2,2,2,2,3,2,2,2,2,4,5,3,3,2,3,3,2,5,5,2,1,2,4,2,3,5,3,2,3,4,4,4,2,1,2,2,2,2,4,3,2,5,4,4,5,4,1,1,2,2,2,4,5,2,1,2,4,1,4,2,3,4,4,2,2,4,2,3,4,4,3,2,2
"Serbia",1990,1,1,2,3,2,1,15,0,1,15,36.05,36,36.1,44.818603515625,41,9,6,1,2,1,NA,2,2,4,1,2,1,2,6,1,NA,1,NA,1,NA,NA,1,1,NA,1,NA,NA,NA,NA,NA,NA,NA,NA,NA,NA,3,3,4,5,4,3,2,3,4,4,4,3,4,3,4,3,2,2,3,3,2,3,3,4,4,2,3,1,1,1,1,1,1,1,1,1,4,2,2,2,1,1,1,1,1,1,2,2,2,2,2,2,2,4,2,NA,2,6,2,5,2,2,2,2,2,2,6,8,NA,8,8,2,5,6,6,6,6,6,8,6,6,6,3,5,4,4,5,5,4,2,3,4,2,2,2,2,2,3,2,3,2,1,2,2,2,2,2,2,2,2,2,2,4,4,2,2,1,1,1,1,1,1,4,4,4,4,2,2,2,2,2,4,2,2,2,2,2,4,4,4,4,2,2,2,2,2,2,2,2,4,2,2,2,2,4,2,2,2,4,2,2,4,4,4,4,2,2,2,2,2,2,2,4,2,2,2,2,4,1
"Kassel",1990,1,7,1,5,2,1,1,0,2,NA,36.05,36,36.1,51,53,4,1,1,2,1,NA,4,2,5,NA,2,1,4,3,2,1,2,7,3,2,7,1,1,NA,2,"Rollenspielgruppe",NA,NA,NA,NA,2,NA,NA,NA,NA,4,4,3,4,3,4,3,5,3,4,4,4,5,2,2,3,2,2,1,2,2,2,2,3,3,1,2,1,1,1,2,1,1,1,1,1,1,1,1,1,1,1,1,1,1,1,1,3,2,2,3,2,5,1,6,2,4,6,4,5,2,3,1,6,3,3,4,2,2,2,2,1,4,6,2,2,2,2,2,4,2,2,3,4,4,4,5,2,3,2,4,4,1,2,1,1,1,5,1,1,2,1,2,1,1,2,2,4,1,1,1,1,3,4,2,3,2,1,1,2,1,2,4,2,4,4,2,1,1,2,1,5,2,1,3,5,2,2,2,4,1,5,4,5,4,4,3,4,1,1,2,1,3,3,3,4,2,3,4,2,1,2,4,1,1,1,3,3,4,1,1,1,4,2,2,1,2,1,2
"Kassel",1990,1,7,1,4,2,1,1,0,1,2,36.05,35.9,36.2,51.287796020508,77,5,1,1,1,1,NA,4,2,4,1,3,1,8,4,1,NA,2,5,3,1,2,3,1,NA,1,NA,NA,NA,NA,NA,NA,NA,NA,NA,NA,3,2,2,2,1,3,3,3,2,2,4,2,4,2,2,2,2,3,2,2,2,2,2,1,3,1,2,1,4,1,4,1,1,1,1,2,1,1,1,1,1,1,1,1,1,2,1,2,1,1,1,2,1,1,1,2,1,7,1,1,2,1,1,2,1,1,1,2,2,1,1,1,1,1,1,2,2,1,1,2,2,1,2,5,3,5,5,4,2,3,4,3,3,3,2,4,2,2,2,2,3,1,2,1,1,2,2,1,1,2,2,2,1,3,2,4,5,2,2,3,3,3,3,4,4,4,2,3,3,3,3,4,4,3,4,5,2,2,3,3,3,4,3,4,5,3,4,4,2,5,4,3,2,4,2,2,1,4,1,2,4,2,2,5,2,1,3,3,4,2,1,3,1,2,2,2,2,2,1
"Zurich",1990,2,6,1,3,2,1,1,0,2,NA,36.055,36.09,36.02,NA,60,1,1,1,2,1,NA,4,2,4,1,5,1,5,2,1,NA,1,NA,1,NA,NA,3,1,NA,1,NA,NA,NA,NA,NA,NA,NA,NA,NA,NA,3,3,1,3,2,2,2,2,2,2,1,3,2,4,3,3,2,3,3,2,4,3,4,3,4,3,2,3,4,2,4,3,3,1,4,4,3,3,3,3,3,3,3,3,3,3,3,1,1,1,1,1,3,1,1,1,1,7,2,5,1,1,1,1,1,1,1,4,1,2,1,1,2,7,1,1,1,2,1,7,5,1,1,4,4,4,4,3,5,2,4,3,5,5,6,5,7,6,6,2,2,1,4,3,1,4,2,1,3,2,2,2,1,2,2,4,6,6,3,3,2,4,2,3,1,5,4,1,4,3,2,1,3,3,1,3,2,1,4,4,3,4,4,4,4,4,3,3,2,3,2,2,2,3,4,3,3,1,1,2,4,3,2,3,2,2,3,3,4,3,3,2,4,2,2,2,2,1,3
"VCU",1990,1,4,2,4,2,1,18,0,1,3,36.08333333,35.94444444,36.22222222,37.442596435547,34,8.888888889,5,1,2,1,NA,4,4,5,NA,2,2,4,4,1,NA,2,4,3,5,3,1,1,NA,1,NA,NA,NA,NA,NA,NA,NA,NA,NA,NA,3,2,3,2,3,2,1,3,2,2,4,3,2,4,4,4,3,3,3,3,3,3,4,4,3,4,4,3,3,2,2,3,3,4,3,4,4,3,3,4,3,2,2,3,3,4,4,4,4,3,5,2,4,3,4,3,6,5,2,4,3,3,3,5,5,3,4,5,5,4,5,6,4,4,4,4,3,4,4,4,5,4,5,4,3,3,4,3,4,4,3,3,5,5,6,6,5,5,5,3,4,2,3,4,3,4,3,4,2,3,2,3,1,2,2,4,5,5,5,5,5,5,3,3,3,4,3,4,3,2,3,4,3,2,3,4,2,3,3,4,3,4,4,3,4,4,4,3,2,4,3,2,5,4,4,3,3,3,4,4,3,3,2,4,2,3,2,3,4,4,4,4,2,3,3,3,3,4,3
"Oxford",1990,2,7,1,1,2,1,4,7,2,NA,36.1,35.6,36.6,51.75,71,1.666666667,5,1,2,1,NA,4,4,5,NA,1,NA,1,1,2,1,2,8,3,1,5,1,1,NA,2,"cheerleading","rowing","choir",NA,NA,20,5,10,NA,NA,1,1,3,3,1,1,1,1,1,1,1,2,2,1,5,5,5,5,5,1,5,5,5,4,5,3,5,4,4,2,4,4,3,4,4,4,4,4,4,4,3,2,3,4,4,2,4,7,7,7,7,6,7,5,7,1,5,7,5,5,3,7,7,7,2,7,2,6,2,2,2,3,5,6,3,3,3,2,3,3,3,2,6,4,4,4,4,4,5,5,5,5,7,4,4,4,7,7,7,4,5,4,5,4,4,4,4,3,4,2,2,3,3,4,3,4,6,5,6,4,5,1,1,4,1,5,4,5,3,4,5,4,4,1,1,4,5,1,1,4,1,3,4,4,5,5,5,3,1,2,2,1,2,2,2,4,4,2,5,2,2,4,3,3,4,4,1,1,5,5,5,2,4,3,2,1,3,1,1
"Kassel",1990,1,2,1,3,2,1,0,0,2,NA,36.12,35.76,36.48,50.13330078125,82,1,1,1,2,1,NA,2,2,4,1,4,2,3,3,1,NA,2,3,1,NA,NA,1,1,NA,2,"Spielegruppe",NA,NA,NA,NA,4,NA,NA,NA,NA,2,4,3,2,2,4,3,2,2,4,4,4,4,3,4,3,4,2,3,2,2,3,3,5,4,2,2,4,4,2,4,3,2,4,4,4,4,4,4,5,4,2,2,2,2,3,3,5,5,5,5,5,5,5,4,5,5,6,3,5,4,2,3,3,3,5,2,6,2,3,2,3,3,3,2,2,3,3,5,6,3,4,3,4,3,4,4,4,4,4,4,5,6,5,5,5,6,5,5,4,4,4,4,4,3,4,2,4,4,4,2,2,2,4,2,5,6,6,6,5,2,2,1,4,3,4,3,4,2,2,4,4,4,1,3,5,2,1,1,2,4,4,4,5,3,5,3,4,3,4,4,4,4,4,4,2,2,5,3,4,2,4,2,5,2,4,2,4,4,4,4,4,4,3,4,3,4,2,3
"SMU",1990,1,4,2,3,2,1,0,0,2,NA,36.25,36.1,36.4,1.2931060791016,79,26,5,1,2,1,NA,4,4,5,NA,2,2,3,3,2,1,2,3,2,1,1,2,2,2,2,"Canoe Club",NA,NA,NA,NA,5,NA,NA,NA,NA,2,2,1,2,4,3,2,2,2,2,1,3,2,5,3,4,3,3,2,3,4,3,3,3,5,3,4,4,4,4,4,4,4,4,4,4,4,4,4,4,3,4,3,4,3,3,4,5,5,5,6,5,5,5,5,3,5,4,5,5,6,4,5,5,5,5,4,5,3,4,5,5,4,4,3,3,3,4,4,3,3,3,3,4,4,4,4,4,5,4,4,4,4,5,4,5,5,4,4,4,4,4,4,4,4,4,4,3,4,4,2,3,2,3,2,4,3,4,5,5,5,6,3,4,4,3,1,3,4,5,4,5,5,4,4,4,3,4,2,4,3,3,4,5,4,4,4,4,4,4,4,4,3,3,3,4,4,4,3,4,3,3,4,4,4,4,4,4,4,4,4,4,4,4,4,4,4,4,4
"Tsinghua",1990,1,2,1,2,2,1,4,0,2,0,36.3,36.1,36.5,39.928894042969,51,7,7,3,2,1,0,4,4,5,0,2,1,2,2,1,2,2,3,3,2,2,3,2,2,2,NA,NA,NA,NA,NA,NA,NA,NA,NA,NA,2,2,2,3,1,5,2,4,1,3,5,2,3,5,4,5,4,3,4,4,5,3,4,4,5,4,4,5,4,3,4,5,4,5,4,4,4,5,3,4,3,3,2,3,5,2,4,5,5,5,4,6,6,5,3,4,5,3,5,4,5,4,3,4,5,4,2,5,3,5,5,5,3,2,5,2,2,2,3,2,4,4,3,5,5,5,5,5,5,5,5,5,5,4,5,6,5,5,6,4,2,2,3,3,4,2,3,3,5,2,2,4,1,4,2,3,3,4,3,3,2,2,4,5,5,4,4,3,3,4,3,4,4,5,4,4,4,5,4,4,4,3,4,4,3,3,3,4,5,4,4,5,4,2,4,5,5,5,4,4,2,4,4,4,4,3,2,4,4,4,3,3,4,5,5,4,2,2,2
"SMU",1990,1,7,1,5,2,1,1,0,2,NA,36.35,36.3,36.4,1.2931060791016,70,27,5,1,1,1,NA,4,4,4,1,1,NA,5,2,1,NA,2,3,2,1,3,1,1,NA,1,NA,NA,NA,NA,NA,NA,NA,NA,NA,NA,3,5,3,2,5,4,2,2,2,3,3,5,4,1,3,2,4,1,2,2,2,1,2,1,4,2,1,4,4,2,4,4,2,2,4,4,4,1,1,1,1,1,1,1,1,1,1,2,3,1,2,1,2,1,1,6,2,6,2,1,1,3,2,3,2,5,1,3,3,3,3,3,3,2,3,2,2,2,3,3,4,2,2,5,5,5,5,5,4,1,4,4,2,2,2,2,2,2,2,2,4,2,4,2,2,2,4,2,2,1,1,2,2,3,2,3,2,2,1,2,1,1,2,4,5,1,1,3,3,3,4,5,4,1,4,4,4,5,2,3,2,2,4,4,2,4,2,4,4,2,3,2,1,1,2,3,1,2,2,2,2,2,4,5,2,1,1,3,5,1,1,2,4,4,2,4,2,1,4
"Serbia",1990,1,7,1,4,2,1,4,0,2,NA,36.4,36.5,36.3,44.818603515625,95,11,6,1,2,1,NA,4,2,4,1,8,5,6,5,1,NA,2,4,3,1,2,3,1,NA,1,NA,NA,NA,NA,NA,NA,NA,NA,NA,NA,4,5,5,4,4,5,4,5,4,4,5,5,5,3,1,2,2,2,1,2,2,2,2,1,5,1,2,2,2,1,2,1,2,2,1,1,2,1,2,2,2,1,1,1,2,1,1,2,1,2,1,8,2,2,2,1,1,1,2,2,1,1,2,2,2,2,NA,7,NA,4,4,2,NA,1,NA,5,NA,NA,2,7,NA,NA,3,4,2,4,4,4,2,1,2,2,2,3,3,1,2,2,4,2,4,2,2,2,1,2,2,4,1,1,3,3,3,4,3,1,2,2,1,2,2,2,5,4,4,5,2,2,4,4,2,4,2,1,3,2,2,3,4,3,3,5,4,4,4,4,1,1,5,3,2,2,3,2,2,2,3,4,4,4,2,2,3,4,2,2,4,4,4,3,3,4,3,4,2,1,2,1,2
"Poland",1990,2,6,1,3,2,1,4,2,2,NA,36.41,36.56,36.26,54.583297729492,92,6,9,1,1,1,NA,4,4,4,2,8,5,7,7,1,NA,2,1,6,1,5,1,2,5,2,"o?rodek interwencyjny","organizacja harcerska",NA,NA,NA,2,3,NA,NA,NA,2,2,4,5,5,4,1,3,1,2,1,2,5,4,3,4,4,3,4,3,4,3,2,2,5,3,3,1,2,2,1,4,1,1,2,1,4,3,4,3,4,1,1,1,1,1,4,1,1,1,1,4,5,1,1,1,1,7,1,2,1,3,6,6,1,1,1,2,1,1,1,1,1,1,1,2,2,1,2,3,3,7,2,5,4,3,4,4,2,1,4,4,7,7,7,7,7,6,6,2,1,2,1,1,2,2,2,3,1,2,1,1,1,2,1,5,7,7,6,6,4,4,1,3,2,5,4,4,2,1,5,2,2,2,1,2,4,1,5,4,3,4,4,5,3,5,4,5,3,3,5,4,1,4,1,4,1,4,2,4,2,1,2,3,4,4,2,1,4,4,3,4,5,1,3,5,4,2,4
"Kassel",1990,2,5,2,3,2,1,3,0,1,18,36.425,36.26,36.59,51.31950378418,77,5,1,1,4,1,NA,4,1,4,1,4,2,8,5,1,NA,2,8,1,NA,NA,1,1,NA,2,"Fachschaft an der Universit?t",NA,NA,NA,NA,4,NA,NA,NA,NA,4,2,4,3,3,4,4,4,3,4,5,4,4,3,3,4,2,2,2,2,2,3,3,3,4,3,2,4,4,2,2,2,2,1,3,2,2,2,1,2,1,1,1,1,1,1,1,2,2,1,2,3,5,3,2,2,2,6,1,2,2,5,1,1,1,2,1,5,1,2,1,1,2,2,1,2,1,5,2,5,4,2,3,4,4,3,5,4,5,4,5,4,5,4,3,2,4,3,5,2,2,1,2,2,2,3,2,3,2,1,2,2,2,1,1,5,8,6,4,2,3,6,2,3,2,5,4,3,2,2,3,4,2,4,3,4,4,2,4,4,4,4,3,3,4,5,5,3,2,3,4,3,2,3,3,2,2,4,3,3,2,2,2,3,1,3,2,4,4,3,4,3,1,1,2,3,3,2,4
"VCU",1990,1,7,1,3,2,1,8,0,2,NA,36.44444444,36.38888889,36.5,37.516006469727,49,10.55555556,5,1,1,1,NA,4,4,4,4,1,NA,3,5,1,NA,2,8,3,8,8,4,1,NA,1,NA,NA,NA,NA,NA,NA,NA,NA,NA,NA,4,2,2,3,4,2,3,3,2,2,3,4,2,2,3,4,2,3,3,3,3,2,3,3,4,2,3,4,4,2,4,2,4,2,2,4,4,2,2,3,2,2,2,2,2,3,2,2,2,2,2,3,2,2,2,2,2,6,2,2,2,2,2,2,2,2,2,2,2,2,2,2,2,2,3,2,3,2,1,2,2,1,3,4,4,5,5,4,2,2,2,4,3,5,4,5,2,2,2,2,4,2,3,2,2,2,2,2,2,2,3,3,2,4,2,5,5,5,5,5,5,5,4,2,4,4,4,4,4,4,4,4,2,2,4,4,4,3,2,4,4,3,4,2,4,4,4,4,3,3,4,2,2,2,2,4,4,4,2,2,2,2,2,4,1,1,2,4,3,4,4,3,2,2,4,3,3,4,1
"Serbia",1990,1,7,1,5,2,1,3,0,2,NA,36.5,36.5,36.5,44.818603515625,95,11,6,1,2,1,NA,4,4,5,NA,8,6,6,6,1,NA,2,8,2,2,3,3,1,NA,1,NA,NA,NA,NA,NA,NA,NA,NA,NA,NA,4,5,4,3,4,5,3,2,3,4,4,5,4,2,2,2,1,1,1,2,1,2,3,2,5,1,1,1,2,1,2,1,1,1,1,1,1,2,1,1,1,1,1,1,1,1,1,1,1,2,1,4,1,2,1,4,1,4,1,1,1,2,1,2,1,4,NA,1,3,1,1,1,4,3,4,4,4,4,1,7,7,1,1,4,3,3,5,5,4,3,4,5,3,5,4,4,4,2,4,1,3,1,5,2,1,1,1,1,1,2,4,1,5,1,4,2,3,4,3,2,2,2,3,2,3,5,5,1,4,3,3,2,3,1,3,2,1,3,3,4,2,5,3,4,4,3,1,3,2,1,1,2,1,2,1,1,2,3,1,1,1,2,3,5,3,3,4,4,3,2,3,1,1,3,1,1,3,3,1
"Poland",1990,1,5,1,3,2,1,32,10,2,NA,36.5,36.5,36.5,52.25,55,-3,9,1,1,1,NA,4,2,4,1,1,NA,6,6,1,NA,2,8,6,1,8,1,1,NA,1,NA,NA,NA,NA,NA,NA,NA,NA,NA,NA,4,2,3,4,3,3,2,4,3,1,4,3,2,3,2,3,4,4,4,3,2,3,2,3,4,4,2,3,2,3,2,3,2,4,3,2,3,3,3,4,2,2,2,1,2,2,3,2,3,3,4,3,5,2,3,3,3,5,2,4,2,4,5,4,3,4,4,5,3,4,5,5,2,5,3,3,3,3,6,6,5,2,2,4,2,4,4,3,2,2,2,2,4,4,4,3,5,5,6,2,2,2,2,2,3,2,2,2,2,2,3,3,2,3,1,4,3,4,3,2,4,3,2,4,3,3,2,5,2,4,5,4,4,1,4,3,3,2,2,4,2,3,5,5,3,3,2,4,2,3,4,4,3,4,3,2,2,3,2,4,4,2,4,4,3,2,2,3,3,4,4,4,3,4,3,4,4,2,2
"Kassel",1990,2,5,2,4,2,1,2,0,1,3,36.5,36.2,36.8,49.142303466797,86,9,1,1,3,1,NA,4,4,5,NA,6,2,8,4,2,1,1,NA,3,1,1,2,1,NA,2,"Sch¨¹tzenverein",NA,NA,NA,NA,1,NA,NA,NA,NA,2,1,2,1,1,2,1,2,1,1,4,1,2,2,4,3,2,2,2,3,2,3,3,4,5,1,4,3,4,2,4,4,1,2,2,5,5,4,5,4,4,2,2,1,1,4,4,6,6,6,3,6,6,3,6,5,6,4,4,7,3,6,4,5,6,3,2,1,4,3,7,4,3,2,2,2,4,3,4,2,1,2,3,4,3,3,4,5,5,2,4,2,6,6,6,7,6,4,5,2,4,1,1,4,4,4,2,2,4,4,2,1,1,4,1,4,6,4,4,4,3,4,4,5,3,4,2,2,1,2,2,4,2,1,2,3,3,2,3,2,2,4,5,5,3,2,3,3,3,3,4,4,2,2,1,1,1,4,3,2,3,2,2,4,2,1,4,3,4,2,4,1,4,3,3,2,4,5,2
"Kassel",1990,1,7,1,4,2,1,16,0,2,NA,36.5,36.4,36.6,50.600006103516,71,1,1,1,1,1,NA,4,4,4,4,3,3,4,4,2,1,2,8,3,8,8,1,2,8,2,"Gefahrenabwehr","Sportverein 1","Sportverein 2","Uni",NA,7,7,7,7,NA,2,3,4,3,3,4,1,4,3,5,5,3,3,1,1,3,2,2,1,2,3,1,2,2,3,3,1,5,5,1,4,3,1,2,1,5,3,3,3,3,3,3,3,3,3,1,3,4,1,1,2,6,1,2,1,6,4,2,1,1,5,1,1,1,1,1,1,1,1,1,1,2,1,7,2,1,1,1,1,7,2,1,5,5,4,5,5,5,5,5,5,5,5,2,2,1,1,2,3,3,3,3,2,3,3,1,1,3,1,3,3,3,2,4,3,2,2,2,2,2,1,1,4,4,4,3,2,3,2,4,2,4,2,4,4,1,1,2,2,4,3,4,3,5,2,4,3,5,4,2,3,3,2,1,1,3,3,5,5,1,1,4,4,4,2,3,1,4,4,4,4,3,3,2,1,1,3,3,3
"Tsinghua",1990,1,7,2,3,2,1,4,4,2,0,36.55,36.5,36.6,39.928894042969,51,7,7,3,2,1,0,4,2,5,0,1,0,5,3,1,1,1,1,3,4,3,1,2,1,2,NA,NA,NA,NA,NA,NA,NA,NA,NA,NA,4,4,5,3,5,4,2,5,2,4,4,3,2,4,5,5,2,2,2,3,3,2,3,5,5,2,4,5,4,2,4,4,4,5,4,5,4,4,5,4,5,4,4,4,4,1,5,7,7,7,7,7,7,6,5,6,2,6,3,6,2,5,6,6,4,2,1,2,2,3,1,3,2,1,2,2,1,1,3,2,1,2,1,4,3,2,2,2,4,2,2,3,6,3,2,7,7,7,7,4,2,4,2,2,2,2,4,4,3,4,4,2,1,2,2,4,5,7,3,4,2,4,3,2,4,3,3,1,4,4,2,4,2,4,4,4,2,5,2,4,2,2,4,4,2,2,2,4,2,4,4,3,3,3,2,4,4,4,5,5,4,4,2,4,4,2,4,4,2,2,2,2,4,4,2,4,4,2,2
"Poland",1990,2,1,1,4,2,1,NA,0,2,NA,36.65,36.7,36.6,52.25,59,-3,9,1,1,1,NA,4,2,4,4,8,3,7,5,2,5,1,NA,6,1,6,1,1,NA,1,NA,NA,NA,NA,NA,NA,NA,NA,NA,NA,4,5,4,5,5,5,4,4,5,5,4,5,4,1,2,1,4,4,3,4,2,2,4,1,2,4,1,1,1,1,1,1,1,1,1,1,2,1,1,2,1,1,1,1,1,1,2,1,1,1,1,1,1,1,1,1,1,7,1,2,2,1,4,2,1,1,3,1,1,2,2,1,1,1,2,1,2,2,1,4,4,1,1,4,4,4,4,4,2,2,2,4,1,2,1,1,1,1,2,2,3,2,2,2,2,2,2,2,2,2,4,2,2,2,1,4,5,4,2,5,2,5,2,4,2,4,4,3,2,2,2,2,1,2,1,2,3,1,2,1,2,4,3,4,4,4,4,4,2,4,4,2,2,2,2,2,2,3,2,2,2,2,2,2,2,2,2,2,2,3,3,3,3,2,2,2,2,4,1
"Tsinghua",1990,2,7,1,3,2,1,0,0,2,0,36.7,36.3,37.1,39.928894042969,51,7,7,3,2,1,0,4,4,5,0,3,1,8,4,1,1,2,5,1,1,7,1,2,1,2,NA,NA,NA,NA,NA,NA,NA,NA,NA,NA,3,4,4,5,4,4,3,4,4,4,4,4,3,2,2,3,2,2,2,3,2,2,3,2,4,2,2,4,4,2,4,3,4,2,4,3,5,4,4,4,4,2,2,2,2,3,3,3,2,2,5,6,2,2,2,6,2,2,2,6,2,2,2,3,2,5,2,4,2,2,2,2,2,2,2,2,3,2,2,4,4,2,3,5,4,4,5,5,5,5,4,4,5,2,4,5,3,4,4,2,2,4,3,2,4,3,3,3,2,4,2,3,2,3,2,4,4,5,4,4,5,5,2,4,4,4,1,4,1,2,5,5,2,1,4,5,2,1,2,4,2,2,3,3,4,2,4,5,4,4,4,4,1,1,2,4,5,5,2,4,1,4,2,4,4,2,1,4,2,4,5,3,2,2,3,3,4,2,5
"VCU",1990,2,7,1,3,2,1,0,14,1,5,36.80555556,36.83333333,36.77777778,37.557693481445,94,13.33333333,5,1,1,1,NA,4,4,2,1,2,1,7,6,1,NA,2,6,3,1,4,1,1,NA,1,NA,NA,NA,NA,NA,NA,NA,NA,NA,NA,3,2,4,2,3,3,2,2,2,2,3,3,4,3,3,5,2,3,3,3,3,3,4,4,5,3,4,2,3,2,4,2,4,2,3,4,4,4,4,4,2,2,2,2,2,2,4,6,3,5,6,2,5,6,5,5,5,3,5,3,2,6,5,7,2,4,2,2,3,2,3,2,3,3,2,2,2,2,5,7,7,2,3,4,4,3,4,3,2,4,4,4,6,5,4,5,7,6,5,4,4,1,4,2,4,4,2,2,4,2,2,2,2,2,2,3,2,4,3,3,3,1,3,4,4,4,4,2,4,2,3,4,2,2,3,3,3,3,4,2,2,2,4,4,4,4,4,3,3,3,4,3,2,2,2,3,5,4,2,2,3,2,4,2,2,3,2,3,4,4,3,2,4,4,3,2,3,1,2
"Oxford",1991,2,7,2,3,2,1,1,0,2,NA,35.1,34,36.2,51.75,74,2.777777778,5,1,2,1,NA,3,3,5,NA,2,2,6,6,1,NA,2,8,1,NA,NA,2,1,NA,1,NA,NA,NA,NA,NA,NA,NA,NA,NA,NA,2,4,5,5,5,5,1,1,3,3,4,4,4,2,1,4,3,2,2,3,3,2,3,1,4,2,2,1,2,1,2,1,1,1,1,3,4,1,1,1,1,1,1,1,1,1,1,4,1,2,1,2,4,1,2,2,2,2,2,2,4,2,4,2,2,2,2,2,2,1,1,2,2,2,2,2,2,2,2,3,2,2,4,4,3,4,4,4,4,4,4,3,7,5,5,5,6,7,6,1,1,1,2,3,1,1,2,1,1,1,3,3,2,1,2,2,5,5,4,4,2,4,1,5,3,3,3,4,4,2,2,3,3,1,3,3,3,2,5,4,2,4,4,3,4,5,5,4,4,3,3,3,3,3,3,4,2,4,3,4,3,2,2,2,2,4,1,4,4,4,3,3,4,4,2,2,3,1,3
"Oxford",1991,1,7,1,5,2,2,0,0,2,NA,35.15,34.1,36.2,51.75,89,-1.666666667,5,1,1,1,NA,4,4,4,1,1,NA,4,8,2,8,2,3,1,NA,NA,1,2,2,1,NA,NA,NA,NA,NA,NA,NA,NA,NA,NA,2,2,3,3,4,3,3,3,2,3,3,2,3,3,3,2,3,3,3,3,3,3,3,3,4,3,3,2,2,2,2,2,2,2,2,2,2,2,2,2,2,2,2,2,2,2,2,3,4,3,4,4,3,3,4,3,3,4,3,3,3,4,3,3,3,3,4,3,4,4,3,3,5,5,5,4,4,4,3,5,3,4,3,4,3,4,3,3,3,4,4,4,6,6,6,6,6,6,6,3,2,2,3,2,3,3,2,3,2,3,2,2,3,3,3,4,5,4,3,3,3,3,4,4,4,4,3,2,2,4,3,3,3,2,3,4,3,3,3,4,2,2,4,3,4,2,2,2,2,2,2,2,3,2,2,3,3,4,4,3,2,3,4,3,2,3,4,3,3,3,2,4,4,4,2,2,3,3,3
"SMU",1991,1,7,1,3,2,1,0,0,2,NA,35.15,34.6,35.7,1.2931060791016,71,26,5,1,2,1,NA,4,4,5,NA,2,2,8,8,2,1,2,8,1,NA,NA,1,1,NA,1,NA,NA,NA,NA,NA,NA,NA,NA,NA,NA,4,2,4,4,2,3,2,4,4,4,4,2,4,3,3,3,2,2,2,2,3,2,2,3,4,2,3,4,4,4,4,4,4,4,4,4,4,4,4,4,4,4,4,4,4,4,4,2,2,6,2,2,2,2,2,6,2,2,2,2,2,2,2,2,2,2,2,2,2,2,2,2,2,2,2,2,2,2,2,2,2,2,2,4,4,4,4,4,4,4,4,4,4,5,5,5,4,4,4,2,2,3,2,2,3,4,2,2,2,2,2,2,2,4,2,3,4,5,3,2,3,3,4,4,4,4,2,4,4,4,4,4,4,2,4,4,2,4,4,4,4,4,4,4,4,4,4,4,4,4,4,4,2,2,3,2,2,4,3,4,3,4,3,4,4,4,4,4,4,4,4,4,2,4,4,4,4,4,2
"METU",1991,1,6,1,4,2,1,33,0,2,NA,35.25,35.3,35.2,39.911697387695,49,6,3,2,2,1,NA,4,4,4,1,8,6,8,8,1,NA,2,8,1,NA,NA,3,1,NA,1,NA,NA,NA,NA,NA,NA,NA,NA,NA,NA,2,4,2,3,2,2,1,1,2,1,3,2,3,3,3,3,3,3,3,2,4,3,3,3,4,3,3,3,3,4,3,4,2,4,1,4,3,4,4,3,4,4,4,2,4,3,4,5,2,1,3,5,5,2,3,5,2,6,2,2,2,2,6,2,1,3,3,4,2,2,2,2,2,2,3,2,3,2,2,4,4,2,2,5,4,4,4,4,5,5,5,4,5,5,5,5,5,4,4,2,2,2,2,2,2,2,2,2,2,2,3,3,3,4,2,5,4,4,2,3,2,3,4,2,3,4,3,2,1,4,3,5,3,3,4,4,3,4,3,3,4,4,3,2,5,4,4,4,4,4,4,4,2,2,3,2,3,4,2,2,3,3,2,4,3,3,2,4,3,4,4,4,2,3,3,3,2,3,2
"VCU",1991,1,7,2,5,2,1,2,1,1,2,35.33333333,34.11111111,36.55555556,37.553802490234,81,14.44444444,5,1,2,1,NA,4,4,5,NA,3,2,4,4,1,NA,2,8,1,NA,NA,2,1,NA,1,NA,NA,NA,NA,NA,NA,NA,NA,NA,NA,5,1,1,1,1,5,1,5,1,1,5,1,1,5,5,5,1,1,1,1,5,1,1,5,5,1,5,5,5,5,5,5,5,5,5,5,5,5,5,5,5,5,5,5,5,5,5,7,7,7,7,7,7,7,7,1,7,1,7,7,7,7,7,7,7,7,1,7,1,7,7,7,1,1,1,1,1,1,7,1,1,1,1,5,4,4,4,4,5,3,2,4,5,7,7,7,7,7,7,4,5,4,1,5,5,5,5,5,4,3,2,5,1,5,1,2,3,4,3,3,5,5,3,3,3,3,3,3,3,3,3,5,5,5,5,5,5,5,5,5,5,5,5,5,5,5,5,5,5,5,5,5,5,5,5,5,5,5,5,5,5,5,5,5,5,5,5,5,5,5,5,5,5,5,5,5,5,5,5
"Zurich",1991,2,6,1,2,2,1,0,0,2,NA,35.6,35.3,35.9,47.39990234375,88,7,1,1,1,1,NA,4,4,4,2,2,2,4,4,1,NA,1,NA,1,NA,NA,1,1,NA,1,NA,NA,NA,NA,NA,NA,NA,NA,NA,NA,2,4,3,4,5,5,3,3,2,5,2,4,3,3,2,2,3,2,3,3,2,2,3,4,4,3,2,2,2,2,3,2,2,2,2,2,4,2,4,2,4,1,1,1,1,1,4,2,2,2,2,4,2,2,2,6,3,2,2,2,2,2,2,2,1,4,3,2,3,2,2,2,2,2,4,4,3,5,1,6,6,2,5,5,5,4,5,5,5,3,4,4,6,5,4,5,4,4,5,2,2,2,2,3,2,4,2,2,3,2,2,3,2,3,2,4,4,6,2,4,2,4,3,2,3,5,4,2,3,3,2,4,3,5,2,2,2,2,3,2,3,4,3,4,4,4,4,5,5,3,4,4,1,1,2,1,4,5,4,5,3,4,5,3,5,2,4,4,4,4,3,5,1,3,4,5,4,3,4
"Kassel",1991,1,2,1,3,2,1,92,10,1,10,35.6,35.5,35.7,52.409698486328,53,12,1,1,2,1,NA,4,4,5,NA,4,1,8,8,1,NA,2,6,3,1,8,3,1,NA,1,NA,NA,NA,NA,NA,NA,NA,NA,NA,NA,2,2,1,1,1,2,1,3,3,4,3,1,4,4,5,3,3,3,2,3,4,3,4,5,4,2,5,4,3,2,2,4,2,1,3,3,3,3,3,2,2,1,1,1,1,1,2,5,2,6,3,7,4,5,5,5,4,3,4,1,2,6,5,4,4,2,1,7,2,2,1,3,3,2,1,2,1,2,1,6,6,2,3,4,4,4,5,5,3,4,5,5,6,7,6,6,6,5,5,2,1,2,1,3,3,2,2,1,3,3,1,2,2,2,1,4,5,4,4,2,2,3,2,3,2,2,2,2,2,4,1,4,3,4,2,3,3,4,5,2,1,3,4,4,3,4,3,5,4,3,4,3,4,2,2,1,1,5,4,2,1,3,2,3,2,2,3,4,3,1,3,3,4,3,3,4,2,1,2
"Oxford",1991,1,3,2,4,2,1,5,0,2,NA,35.7,35.3,36.1,51.75,89,-1.666666667,5,1,2,1,NA,2,2,5,NA,8,5,7,3,2,8,1,NA,3,1,8,1,1,NA,1,NA,NA,NA,NA,NA,NA,NA,NA,NA,NA,4,3,5,5,3,5,5,5,4,4,3,4,4,3,4,3,2,2,1,3,2,2,3,3,5,2,3,2,1,1,1,1,3,2,1,4,3,2,1,4,1,1,1,1,2,2,3,1,1,1,1,1,5,2,1,7,1,6,1,2,1,2,1,2,2,1,7,2,5,2,4,2,6,7,6,6,6,7,2,7,6,6,7,5,5,5,5,4,5,4,4,5,1,2,2,1,2,1,1,2,1,1,5,2,2,3,4,1,1,2,1,2,4,4,2,1,1,3,2,2,2,1,1,1,1,4,4,4,1,3,4,1,1,1,1,1,4,1,4,3,4,4,2,3,4,4,4,4,5,4,4,4,1,1,1,4,5,5,4,4,4,4,3,4,4,4,1,1,4,4,4,4,1,1,4,5,4,4,1
"SMU",1991,2,4,2,3,2,2,0,0,2,NA,35.75,35.8,35.7,NA,70,27,5,1,2,1,NA,4,4,5,NA,1,NA,5,6,1,NA,2,6,1,NA,NA,3,2,8,1,NA,NA,NA,NA,NA,NA,NA,NA,NA,NA,3,5,4,5,3,2,2,2,2,5,4,4,3,3,3,2,3,3,2,2,3,3,3,3,3,3,2,3,2,3,3,3,3,3,4,2,4,2,4,4,3,2,3,2,4,3,3,5,4,4,4,4,4,4,4,4,4,4,4,4,2,4,4,4,4,4,4,4,4,4,4,4,4,4,4,4,4,4,4,5,5,4,2,5,5,4,5,5,4,3,4,4,3,5,4,3,3,4,4,2,3,3,3,1,2,3,2,2,2,1,2,2,2,3,2,4,5,4,5,4,4,4,4,4,4,3,3,3,3,3,3,4,4,2,3,4,3,4,3,3,3,3,3,3,3,3,3,3,3,3,3,3,3,3,3,3,3,3,2,2,2,2,3,3,3,3,2,4,4,4,3,3,4,3,3,4,4,3,2
"Serbia",1991,1,7,1,4,2,1,8,6,2,NA,35.75,35.7,35.8,44.818603515625,68,7,6,1,2,1,NA,4,4,4,3,3,1,4,3,1,NA,2,8,3,2,8,2,2,5,2,NA,NA,NA,NA,NA,NA,NA,NA,NA,NA,2,1,5,4,1,4,3,2,1,3,2,1,3,2,4,3,1,1,1,1,3,2,2,3,5,1,3,2,3,3,3,3,3,3,3,3,3,3,3,3,3,3,3,3,3,3,3,1,1,1,2,3,3,2,2,7,1,7,3,4,1,2,1,1,5,7,1,1,NA,4,8,3,1,1,1,NA,1,1,4,7,NA,1,1,5,5,5,5,5,5,5,5,5,6,7,7,7,7,7,7,2,2,1,1,4,3,4,2,1,2,3,2,3,2,3,1,1,1,1,1,1,1,1,5,3,4,4,3,1,4,4,5,4,4,4,5,5,3,5,5,5,5,5,5,1,5,5,2,3,4,4,4,4,4,4,2,4,3,5,4,2,2,5,5,2,5,5,2,5,5,5,5,5,5,5,1,5,4,5,1
"Oslo",1991,1,2,1,5,2,1,0,0,2,NA,35.8,35.6,36,NA,75,0,4,1,2,1,NA,4,2,4,1,2,2,5,5,1,NA,2,8,1,NA,NA,6,1,NA,2,"OSI Boksing","Seminar PSY101","Seminar PSY1101","OSI Dans","Kollokvie",7,5,5,7,3,4,4,5,3,4,3,4,5,4,4,4,3,3,2,2,3,1,2,2,3,3,2,4,2,5,2,3,1,2,1,2,1,1,1,1,3,2,1,2,1,2,1,1,2,1,1,1,1,1,1,2,4,1,1,6,3,1,3,1,2,2,1,1,5,2,3,5,6,5,5,3,2,3,2,7,6,5,6,2,3,3,2,2,4,2,4,4,2,1,1,2,2,1,2,1,2,2,1,1,2,1,2,2,2,1,1,2,2,1,1,2,3,3,4,2,2,2,1,1,1,2,2,3,2,4,5,4,2,2,4,1,2,2,5,2,2,4,3,4,2,4,4,3,2,4,5,4,5,2,3,3,2,2,4,2,1,1,2,1,5,4,2,1,1,3,4,2,3,3,2,4,3,2,1,2,2,2,4,1
"SMU",1991,1,6,2,4,2,1,2,0,2,NA,35.8,35.8,35.8,1.2931060791016,70,26,5,1,2,1,NA,4,4,5,NA,8,8,7,7,2,1,2,3,1,NA,NA,1,1,NA,1,NA,NA,NA,NA,NA,NA,NA,NA,NA,NA,2,3,3,3,3,4,3,3,2,3,2,4,4,3,3,4,4,2,2,3,4,3,3,3,5,3,3,4,4,3,4,4,2,2,3,3,4,4,4,4,2,2,4,4,3,3,4,5,5,5,3,4,4,4,3,5,5,5,4,4,3,3,6,3,5,5,3,4,3,5,4,3,3,5,2,3,3,3,3,3,3,3,3,5,5,5,5,5,5,2,4,4,2,5,5,5,4,3,3,3,4,2,4,2,2,4,4,4,4,3,2,2,3,4,4,5,4,5,1,3,3,3,3,3,4,2,2,1,2,2,2,5,4,2,5,4,3,4,4,4,2,2,4,4,4,3,3,3,3,3,3,3,3,3,3,1,2,2,2,2,2,4,3,2,2,2,2,3,4,2,3,2,4,4,2,2,2,1,4
"Bamberg",1991,2,7,1,3,2,1,4,0,2,NA,35.85,35.7,36,48.149993896484,70,-3,1,1,1,1,NA,4,2,4,2,4,3,5,3,1,NA,2,4,1,NA,NA,2,1,NA,1,NA,NA,NA,NA,NA,NA,NA,NA,NA,NA,4,3,4,4,4,2,4,4,4,4,5,4,4,3,2,5,2,2,2,3,3,3,3,4,4,2,2,2,4,2,3,2,1,4,4,3,4,4,4,4,4,1,1,1,1,2,4,3,2,1,2,2,5,3,2,5,1,5,2,2,1,1,1,3,1,1,1,2,1,1,7,1,7,7,2,1,1,1,1,5,6,1,2,5,5,4,5,4,4,4,4,4,4,2,5,4,3,3,3,2,2,2,2,2,2,2,2,1,1,4,2,2,2,2,5,5,7,5,5,5,5,5,1,4,2,4,3,4,2,3,4,4,4,2,2,4,4,2,4,4,3,4,2,4,2,5,5,4,4,2,4,3,1,1,1,2,2,4,1,2,2,2,3,2,4,2,1,4,4,4,4,4,2,4,4,4,3,2,4
"Oxford",1991,1,4,2,3,2,1,3,0,2,NA,35.9,35.7,36.1,51.75,71,1.666666667,5,1,2,1,NA,4,1,5,NA,5,1,1,1,1,NA,2,8,1,NA,NA,5,1,NA,2,"Sports",NA,NA,NA,NA,7,NA,NA,NA,NA,4,4,5,4,4,5,1,3,4,4,4,4,4,4,3,2,2,4,1,3,2,4,2,2,5,2,3,1,2,1,1,1,1,1,1,1,2,3,2,2,2,2,1,1,2,1,2,2,3,4,3,2,1,3,6,4,3,5,2,5,2,2,2,2,2,3,6,6,3,6,3,3,6,5,6,4,7,5,6,7,5,6,6,2,4,3,2,2,1,2,3,3,7,3,4,5,4,6,5,2,2,1,2,2,2,2,3,3,2,2,1,1,4,4,2,1,2,1,2,2,2,2,2,4,4,4,2,1,1,2,2,4,3,5,4,4,1,3,2,4,2,4,5,4,3,2,4,4,2,2,4,2,2,3,2,1,4,5,4,4,1,2,4,4,2,2,4,4,2,2,2,3,4,1,2,3,2,5,2
"Poland",1991,2,4,1,3,2,1,13,4,1,12,35.9,35.8,36,54.350006103516,85,3,9,1,1,1,NA,4,4,3,3,5,5,8,5,2,1,1,NA,2,4,2,1,1,NA,1,NA,NA,NA,NA,NA,NA,NA,NA,NA,NA,2,2,3,5,3,3,2,2,3,4,4,4,3,4,3,3,3,2,4,3,4,4,4,3,4,3,3,3,3,4,2,3,3,2,3,3,3,2,3,3,4,3,3,2,4,2,4,4,3,4,4,5,5,2,4,3,4,3,5,5,4,3,3,5,4,2,4,5,3,5,2,2,3,3,4,3,5,5,3,5,5,3,4,2,3,3,3,4,3,4,3,2,3,6,4,3,5,5,5,3,4,2,4,4,3,4,2,2,3,2,3,2,1,3,3,4,4,6,3,4,5,4,4,4,2,4,3,3,3,3,3,4,2,2,2,2,4,2,3,2,2,4,3,4,4,3,4,3,4,3,4,4,3,4,4,2,3,4,3,4,2,3,3,3,3,2,2,4,4,4,2,4,3,4,3,4,3,4,2
"Oslo",1991,1,6,1,4,2,1,NA,NA,2,NA,35.9,35.4,36.4,59.916702270508,70,-7,4,1,2,1,NA,4,1,4,1,1,NA,5,4,1,NA,2,7,3,1,1,5,1,NA,2,"Sport","Kollektiv","Kollokvie","Ingen","Ingen",3,5,3,0,0,3,3,3,2,3,4,2,5,2,2,2,4,4,4,4,5,3,3,3,2,4,3,3,4,5,3,5,3,3,3,4,2,1,4,3,4,3,3,3,3,2,3,3,4,3,3,3,5,5,5,5,3,6,5,5,5,5,2,2,5,2,5,5,6,1,4,2,6,5,4,5,5,5,6,3,3,3,3,3,5,5,5,3,4,2,4,4,3,4,4,4,4,6,3,3,2,4,4,4,3,2,4,2,3,4,4,2,2,4,3,1,2,1,2,2,4,3,2,1,1,3,3,4,4,3,4,2,3,2,2,4,4,4,2,4,4,4,4,2,4,4,4,4,5,4,4,4,3,2,3,4,3,4,4,3,4,3,5,4,3,2,4,4,3,4,3,2,4,4,4,3,4,2,4,4,4,2,3,3
"METU",1991,1,4,2,4,2,1,0,0,2,NA,35.9,35.8,36,39.911697387695,78,8,3,2,2,1,NA,4,2,5,NA,3,3,2,2,2,1,2,6,1,NA,NA,1,1,NA,1,NA,NA,NA,NA,NA,NA,NA,NA,NA,NA,5,3,4,4,3,4,2,4,5,4,5,4,4,3,3,3,2,2,2,2,3,3,1,3,3,2,4,4,4,4,4,4,1,4,1,4,3,4,3,3,4,4,4,1,3,4,3,6,2,6,6,6,7,5,2,7,4,6,5,4,6,5,4,5,4,2,2,6,3,6,3,2,1,2,2,3,4,3,2,3,3,1,3,4,4,4,5,4,4,4,4,4,7,7,7,7,7,7,7,2,2,3,2,2,2,2,2,3,2,2,2,2,2,4,2,3,2,3,1,1,3,3,1,1,5,5,1,1,5,5,4,5,4,2,4,4,2,2,4,4,2,5,2,4,4,4,4,4,4,4,4,4,1,1,1,1,2,4,4,3,1,2,3,4,4,3,3,4,4,3,3,4,4,2,4,4,3,3,3
"Zurich",1991,1,6,2,4,2,1,0,0,2,NA,35.91,36.13,35.69,47.36669921875,86,6,1,1,2,1,NA,4,2,5,NA,6,6,8,7,1,NA,2,3,3,1,3,1,2,3,2,"Pfadfinder",NA,NA,NA,NA,5,NA,NA,NA,NA,5,4,2,4,2,4,3,3,2,4,2,4,4,3,2,4,1,2,1,2,2,3,2,2,5,3,3,2,2,2,4,2,1,1,1,4,1,2,2,1,1,1,1,1,2,1,2,1,1,2,1,1,2,1,2,2,1,1,1,3,1,4,1,2,1,3,2,1,2,1,2,2,2,2,2,2,2,2,2,7,7,2,1,5,5,5,5,5,2,2,5,5,7,3,4,4,3,3,4,4,4,2,4,3,2,2,4,1,3,2,2,3,1,3,1,3,4,4,2,2,5,3,4,1,2,5,4,1,3,4,2,1,2,2,1,2,2,1,3,4,3,4,4,5,2,4,4,3,2,3,2,2,2,3,1,1,4,4,1,4,2,3,1,4,3,2,4,4,4,3,4,4,2,4,2,3,4,2,1
"Kassel",1991,2,6,1,4,2,1,2,0,2,NA,35.95,35.9,36,51.308303833008,54,1,1,1,1,1,NA,4,2,4,1,5,3,4,3,1,NA,2,6,1,NA,NA,1,1,NA,1,NA,NA,NA,NA,NA,NA,NA,NA,NA,NA,3,3,4,2,4,4,3,4,3,4,4,3,4,2,2,3,2,1,2,2,2,2,1,2,3,2,2,3,4,1,4,2,1,2,1,2,4,2,2,2,1,1,1,2,1,2,2,1,1,1,1,1,1,1,1,1,1,2,2,1,1,1,1,4,1,1,1,4,2,1,1,1,3,6,1,1,1,1,1,5,3,4,1,4,5,4,4,3,2,2,3,3,4,3,5,4,4,3,3,2,2,2,2,2,1,3,1,1,2,2,1,1,1,3,1,4,5,6,3,2,2,4,1,2,1,5,4,4,3,3,5,3,1,1,2,4,4,1,4,1,2,4,3,2,4,4,4,3,3,5,4,3,2,2,3,3,2,3,3,3,2,2,1,3,2,3,2,4,4,4,4,2,2,3,4,2,4,4,2
"Oxford",1991,1,7,2,3,2,1,0.5,0,2,NA,35.95,35.8,36.1,51.75,74,2.777777778,5,1,2,1,NA,4,4,5,NA,8,1,5,2,1,NA,2,7,1,NA,NA,3,1,NA,1,NA,NA,NA,NA,NA,NA,NA,NA,NA,NA,2,1,2,1,4,4,1,1,3,2,4,3,3,3,3,4,3,2,2,2,3,4,2,3,5,2,2,4,4,2,5,5,5,5,5,5,2,4,5,1,2,2,4,4,5,2,4,6,5,6,6,4,6,6,7,5,6,5,6,5,3,7,5,6,4,6,3,5,5,5,2,2,4,5,4,4,7,3,6,4,3,5,4,4,4,5,5,5,4,2,4,4,7,5,6,6,6,6,6,2,5,1,4,4,5,2,2,4,2,2,1,1,3,1,2,1,2,3,2,2,2,5,4,5,4,3,1,1,5,2,2,5,5,4,5,5,2,4,3,5,1,2,4,5,3,2,1,3,3,4,2,2,2,4,4,4,3,2,5,5,1,3,3,4,2,1,4,3,2,1,2,1,4,5,2,4,4,4,4
"Zurich",1991,1,7,2,4,2,1,0,0,2,NA,36.05,35.9,36.2,46.538803100586,76,-2,1,1,2,1,NA,4,2,5,NA,4,3,7,4,1,NA,2,3,1,NA,NA,1,1,NA,2,"Meditationsgruppe",NA,NA,NA,NA,2,NA,NA,NA,NA,3,1,4,2,4,5,1,2,1,4,1,4,5,2,2,2,2,2,2,3,3,2,2,2,4,3,2,1,1,1,1,2,1,2,3,1,4,1,3,1,5,1,2,1,1,1,2,1,2,2,5,2,2,2,6,2,2,2,5,1,1,1,5,2,5,1,1,6,2,1,1,1,5,5,2,2,1,1,1,6,5,2,2,3,2,4,3,4,1,1,3,3,6,3,5,3,5,3,6,3,2,1,2,1,2,2,2,1,2,2,1,1,4,3,1,3,3,5,2,2,3,4,5,3,3,5,4,1,2,4,1,2,1,2,4,2,4,1,1,3,1,3,4,2,4,5,5,5,1,4,5,2,1,4,2,2,4,1,1,5,1,1,1,4,1,1,5,3,5,5,5,4,3,1,2,4,2,1,1
"VCU",1991,1,7,2,4,2,1,4,0,1,2,36.05555556,36.05555556,36.05555556,37.54150390625,81,14.44444444,5,1,2,1,NA,4,4,5,NA,3,3,5,5,2,8,2,8,3,1,8,1,2,4,2,"work","church",NA,NA,NA,7,7,NA,NA,NA,3,2,3,2,2,2,1,3,2,2,3,2,3,2,3,3,2,2,2,2,2,2,3,4,4,3,2,4,4,3,4,4,3,2,1,4,4,4,4,4,3,2,3,2,4,2,4,4,4,4,4,4,5,5,4,4,4,2,4,4,5,3,4,5,4,3,3,3,2,3,3,3,4,3,4,3,4,4,3,3,3,4,4,5,4,5,5,4,3,1,3,3,5,5,4,5,4,4,4,2,2,1,3,2,2,2,3,4,2,4,3,4,2,3,2,3,3,4,4,4,4,2,3,3,4,4,2,4,4,2,4,5,4,2,4,4,4,3,2,4,2,4,4,4,4,4,3,3,3,3,3,4,3,4,3,1,3,4,2,4,2,3,3,2,3,2,2,4,2,2,2,3,3,4,3,2,2,2,2
"Oxford",1991,2,2,2,3,2,1,2,0,2,NA,36.1,35.7,36.5,51.75,71,1.666666667,5,1,4,1,NA,4,4,5,NA,3,2,5,4,1,NA,2,3,2,1,4,3,1,NA,2,"Movie club","Pole dancing group",NA,NA,NA,5,2,NA,NA,NA,2,3,3,3,3,3,2,2,5,4,4,3,3,3,2,4,3,4,3,3,3,2,4,3,4,2,3,3,4,2,4,1,1,4,1,4,2,4,2,4,2,2,3,4,4,2,2,5,2,5,5,5,6,1,4,2,4,2,4,2,5,7,4,6,1,4,2,6,5,2,2,4,4,5,2,3,3,1,5,6,5,1,4,2,3,4,4,3,2,3,2,2,5,2,1,1,4,3,3,2,2,1,2,1,4,4,2,2,2,2,3,2,2,3,2,4,4,3,2,3,1,2,3,3,5,5,3,2,2,4,3,4,2,5,3,3,3,2,2,1,2,3,5,5,2,2,3,2,1,1,2,2,2,4,2,1,1,3,3,2,3,2,3,4,2,2,4,3,4,2,2,5,3,5,2,5,4,2,4
"METU",1991,2,7,2,3,2,1,0,0,2,NA,36.1,35.8,36.4,39.911697387695,52,3,3,2,2,1,NA,4,4,5,NA,1,NA,3,3,1,NA,2,8,1,NA,NA,1,1,NA,1,NA,NA,NA,NA,NA,NA,NA,NA,NA,NA,5,4,4,5,5,4,3,2,5,4,5,5,5,1,4,3,2,1,1,2,2,3,1,3,5,3,1,4,3,4,2,3,1,4,3,2,5,4,5,4,4,1,1,1,4,2,5,5,4,4,6,5,4,2,4,7,1,7,4,2,1,4,4,4,1,2,7,6,7,6,4,5,7,7,4,2,6,5,4,7,7,2,5,4,4,3,5,4,4,4,4,4,3,4,3,3,3,2,2,1,4,1,2,1,3,1,2,2,2,1,1,2,1,1,1,5,8,7,7,7,7,8,1,1,4,5,1,2,2,2,2,5,4,1,3,4,4,3,3,2,1,5,4,5,3,4,4,4,4,2,3,3,1,1,1,1,5,4,2,4,1,2,4,4,4,2,2,3,3,1,2,3,4,3,3,3,3,2,2
"METU",1991,2,6,1,3,2,1,2,2,2,NA,36.15,35.8,36.5,39.911697387695,62,5,3,2,1,1,NA,4,4,4,4,4,1,7,4,1,NA,2,8,1,NA,NA,1,1,NA,1,NA,NA,NA,NA,NA,NA,NA,NA,NA,NA,3,4,3,4,2,4,4,3,2,2,4,2,3,3,3,3,3,2,2,3,3,2,3,3,3,3,4,4,4,2,4,2,2,2,2,4,4,4,4,4,4,2,4,4,2,2,4,5,3,2,4,6,5,5,2,4,2,5,2,2,2,2,5,4,2,2,2,2,2,2,2,2,2,2,2,2,2,2,2,2,4,2,2,5,3,5,5,4,5,4,4,4,3,5,5,5,5,5,5,2,2,2,2,2,2,3,2,2,4,2,2,2,3,2,2,5,6,5,4,4,4,4,2,2,3,4,4,4,4,2,4,3,4,2,2,3,3,2,4,4,3,4,2,3,4,4,4,4,4,3,4,4,2,2,3,4,4,3,2,3,3,4,4,4,3,4,2,4,2,4,4,4,2,4,4,4,4,4,4
"Oxford",1991,2,4,2,4,2,1,4,0,2,NA,36.15,36.3,36,51.75,88,-2.222222222,5,1,2,1,NA,4,4,5,NA,8,1,8,4,1,NA,2,8,1,NA,NA,2,1,NA,2,"Oxford sirens","phonetics class",NA,NA,NA,10,5,NA,NA,NA,3,2,2,4,2,2,1,3,2,4,3,2,4,2,3,3,2,3,2,2,3,2,3,3,3,3,2,3,5,3,4,2,1,4,3,4,3,2,2,4,1,2,2,3,2,3,3,6,5,6,6,6,4,5,5,4,2,3,5,5,3,5,5,4,4,5,3,5,4,5,5,3,4,4,3,4,5,3,3,5,5,3,5,4,4,4,4,4,4,2,3,3,6,6,6,5,5,5,5,2,3,2,2,2,3,3,2,2,3,2,2,2,1,2,2,3,4,3,2,2,2,3,2,5,3,4,2,2,2,2,2,5,2,1,2,4,5,2,3,4,3,2,4,3,5,4,4,4,3,4,3,4,2,2,2,2,2,4,2,3,2,2,2,4,2,2,2,3,3,2,2,4,3,2,3,4,3,2,2
"Zurich",1991,2,6,1,3,2,1,6,0,2,NA,36.15,36,36.3,47.292007446289,72,5,1,1,2,1,NA,4,2,5,NA,3,3,3,2,1,NA,2,6,1,NA,NA,3,1,NA,1,NA,NA,NA,NA,NA,NA,NA,NA,NA,NA,2,2,2,3,1,5,1,2,1,1,4,1,2,4,3,5,1,2,2,2,3,3,2,3,3,3,3,4,4,4,4,4,3,4,3,5,5,2,4,4,5,3,3,2,2,4,4,2,1,1,1,4,6,1,1,1,2,7,1,6,4,1,5,2,2,3,2,1,2,1,2,1,2,2,1,1,1,1,4,1,3,2,2,5,4,5,4,4,5,5,5,5,6,7,7,7,6,5,6,1,3,4,2,1,3,1,2,1,2,1,1,2,1,3,1,5,8,7,7,7,6,7,1,2,2,5,4,5,4,3,5,2,4,1,3,2,4,3,4,5,5,5,4,3,4,4,5,5,5,4,4,3,3,2,3,3,3,4,3,2,1,4,2,4,4,5,1,3,4,5,5,5,1,4,4,5,5,2,3
"Poland",1991,2,6,1,4,2,1,2,4,2,NA,36.2,36.2,36.2,52.25,75,0,9,1,2,1,NA,4,4,5,1,4,2,3,1,2,4,2,8,2,1,1,1,1,NA,1,NA,NA,NA,NA,NA,NA,NA,NA,NA,NA,2,4,3,5,4,4,1,3,2,4,5,1,5,3,3,3,3,4,4,4,2,4,4,2,3,4,2,2,2,3,1,1,1,2,2,3,2,2,2,2,2,2,2,2,2,2,2,1,1,1,5,4,2,1,4,2,1,6,2,2,2,5,6,2,1,7,7,4,6,6,6,6,6,5,4,4,5,6,6,4,4,4,7,5,5,5,5,5,5,5,3,3,3,1,1,1,4,2,3,4,5,2,4,2,4,5,5,4,3,4,1,1,3,5,3,3,3,4,2,2,1,1,3,3,5,5,5,4,4,4,4,3,2,1,4,2,2,3,3,4,3,4,5,5,3,3,3,3,4,3,2,2,3,2,4,3,4,5,4,2,1,3,4,1,5,2,1,4,4,3,3,1,5,4,2,4,3,2,4
"Oslo",1991,2,7,1,3,2,1,NA,NA,2,NA,36.2,36.1,36.3,59.912704467773,52,-7,4,1,1,1,NA,4,4,4,2,8,4,8,8,2,1,2,8,3,1,6,1,1,NA,1,NA,NA,NA,NA,NA,NA,NA,NA,NA,NA,3,2,4,3,4,4,2,3,2,2,4,2,3,3,3,4,2,2,3,2,4,2,3,3,4,3,3,2,2,2,4,2,3,2,2,4,4,3,3,4,2,2,2,2,3,4,4,6,2,2,3,6,2,2,2,2,2,2,3,4,2,5,6,6,1,2,2,2,3,2,2,2,2,2,2,2,2,2,2,2,2,1,2,5,5,4,5,5,3,3,4,4,6,5,5,5,5,4,4,4,3,1,3,4,3,2,3,2,2,4,2,2,2,3,2,4,6,6,3,4,3,3,1,5,2,4,2,3,2,2,2,4,4,2,3,4,4,2,2,3,4,4,4,4,4,4,4,4,4,4,4,3,1,2,2,2,3,3,2,3,2,2,3,4,4,2,2,3,4,2,4,2,2,2,3,2,3,2,2
"Poland",1991,2,7,1,4,2,1,12,0,2,NA,36.2,36.3,36.1,51.100006103516,81,7,9,1,1,1,NA,4,4,3,1,8,6,8,5,2,4,2,4,2,1,1,1,1,NA,1,NA,NA,NA,NA,NA,NA,NA,NA,NA,NA,3,3,3,4,4,3,2,2,3,2,4,4,4,2,3,5,3,3,4,4,4,4,3,3,4,4,3,4,4,2,3,2,2,2,2,2,4,4,4,4,4,2,2,2,2,3,4,2,2,2,5,5,5,2,2,2,2,6,2,2,2,2,4,5,1,2,2,2,1,2,1,1,2,1,2,2,2,2,1,3,2,2,2,5,5,5,5,5,5,5,5,5,3,4,4,3,4,4,4,2,3,2,3,4,3,3,2,2,2,2,3,3,2,2,2,5,7,7,7,6,5,4,3,4,4,4,2,2,2,4,2,4,3,2,4,4,2,4,2,4,3,4,3,3,4,5,4,5,5,4,4,4,1,1,1,2,2,4,3,2,3,3,2,4,4,3,3,4,4,4,4,4,2,4,4,4,3,3,4
"Oslo",1991,2,3,1,2,2,1,NA,NA,2,NA,36.2,36,36.4,59.912704467773,84,0,4,1,2,1,NA,4,4,4,1,8,6,8,8,1,NA,2,5,3,1,1,1,1,NA,1,NA,NA,NA,NA,NA,NA,NA,NA,NA,NA,3,3,4,4,3,4,3,3,3,2,3,2,3,4,2,3,2,3,3,3,4,3,3,2,4,3,4,2,4,2,4,2,2,2,3,4,4,3,4,4,2,2,2,2,3,2,3,3,4,4,5,4,4,4,4,4,3,3,5,4,4,4,4,6,4,3,2,5,3,2,2,3,3,3,3,3,3,3,3,3,3,2,4,2,4,3,5,5,3,3,4,4,5,3,3,3,3,3,3,4,5,3,3,4,3,5,2,4,4,3,3,2,2,2,2,2,4,5,3,3,3,2,2,3,3,3,3,4,3,2,4,3,3,1,3,3,3,2,3,2,4,3,2,2,4,4,4,4,4,4,4,4,2,2,2,4,2,4,4,2,3,2,3,4,5,4,2,3,3,5,5,5,1,3,5,3,4,2,3
"METU",1991,2,5,1,4,2,1,NA,NA,2,NA,36.2,36,36.4,39.911697387695,70,3,3,2,4,1,NA,4,4,4,1,4,3,7,7,1,NA,2,5,1,NA,NA,1,1,NA,2,"??renci Toplulu?u",NA,NA,NA,NA,7,NA,NA,NA,NA,3,4,4,5,3,2,4,4,2,4,4,3,4,2,3,3,2,2,2,2,2,2,2,3,4,2,2,3,4,2,4,4,3,3,1,2,4,4,4,4,2,1,4,2,2,1,4,6,2,2,5,5,3,2,5,2,2,2,2,5,1,2,5,2,2,2,2,2,2,2,5,2,2,2,2,2,3,2,2,2,2,2,2,4,4,4,5,5,5,5,5,5,5,6,6,6,6,5,5,1,1,1,2,1,1,1,2,4,1,1,2,2,2,3,2,5,3,3,1,3,3,2,5,4,3,4,4,5,4,2,4,2,2,1,1,1,4,2,4,4,4,4,3,2,3,4,4,4,4,3,4,4,2,2,1,1,4,5,2,4,1,3,3,4,3,4,1,4,3,5,4,4,3,4,4,4,4,2,4
"Oxford",1991,1,7,1,2,2,1,12,0,2,NA,36.25,35.8,36.7,51.75,74,2.777777778,5,1,1,1,NA,4,4,2,1,4,3,6,4,1,NA,2,6,3,1,8,1,1,NA,1,NA,NA,NA,NA,NA,NA,NA,NA,NA,NA,3,3,4,3,2,3,4,3,3,3,4,4,4,3,3,3,3,2,3,2,3,2,2,2,3,4,2,3,4,3,4,2,2,2,2,2,4,4,4,3,2,2,2,2,2,1,2,5,5,5,5,7,5,5,5,3,4,2,6,5,4,5,4,6,5,5,3,4,3,5,3,4,4,3,2,5,5,3,4,3,4,3,4,4,4,4,4,4,4,3,3,3,3,3,3,2,2,2,2,3,3,3,2,4,3,3,4,3,4,4,1,3,2,3,2,4,4,3,1,1,4,4,2,4,2,4,2,2,3,4,3,4,4,2,2,4,4,2,2,4,2,4,3,2,4,4,4,4,3,4,3,3,3,3,2,2,2,4,4,3,1,3,4,4,3,3,2,3,4,4,3,4,4,4,4,3,2,3,2
"Serbia",1991,1,7,1,5,2,1,0,0,2,NA,36.3,36.2,36.4,44.818603515625,88,9,6,1,2,1,NA,4,4,5,NA,8,8,4,8,2,4,2,4,1,NA,NA,2,1,NA,1,NA,NA,NA,NA,NA,NA,NA,NA,NA,NA,3,3,5,4,2,4,5,3,2,3,4,4,4,1,2,2,2,2,2,2,1,5,1,3,3,2,1,2,3,3,2,3,3,2,4,1,4,3,1,3,1,3,1,2,4,3,4,5,3,7,3,7,5,3,4,4,5,6,7,4,8,8,4,3,5,4,4,7,6,7,4,8,3,1,3,4,3,3,2,5,4,4,3,2,2,2,4,4,4,4,3,3,4,5,5,4,5,5,4,2,4,2,4,2,3,3,2,2,2,1,5,3,1,3,2,4,5,4,2,4,3,3,2,3,4,4,5,5,4,3,3,3,3,3,4,3,1,2,4,3,3,3,2,2,4,3,2,5,3,4,4,4,4,3,5,2,2,3,2,4,5,5,4,4,3,3,3,4,3,2,4,4,4,3,3,3,4,3,2
"Serbia",1991,1,6,1,4,2,1,0,0,1,15,36.335,36.4,36.27,44.818603515625,95,11,6,1,1,1,NA,4,4,4,1,4,3,5,5,2,1,2,2,1,NA,NA,1,1,NA,1,NA,NA,NA,NA,NA,NA,NA,NA,NA,NA,3,2,5,3,2,2,4,4,4,5,3,2,2,2,3,3,3,2,2,3,3,2,2,3,4,2,3,1,1,1,1,1,1,1,1,4,1,1,1,1,1,1,1,1,1,1,1,2,2,2,4,2,2,2,8,NA,2,NA,2,2,2,8,2,2,2,8,5,5,3,8,8,5,5,5,6,6,6,6,5,6,6,NA,3,4,4,2,5,3,4,3,4,4,4,3,4,3,4,3,3,2,4,2,4,2,2,4,2,4,2,1,2,4,2,2,2,3,3,4,3,2,3,3,3,1,2,5,4,2,4,5,2,2,3,2,2,2,2,2,4,1,1,2,2,3,2,2,3,2,2,2,2,2,1,3,4,1,1,2,1,4,4,2,2,5,3,1,2,3,2,2,2,2,4,2,3,1,1,3,4
"Chile",1991,1,6,1,3,2,1,0,31,2,0,36.35,36.4,36.3,33.449996948242,59,2,2,1,2,1,NA,4,2,5,NA,3,3,4,1,1,NA,2,8,1,NA,NA,1,1,NA,1,NA,NA,NA,NA,NA,NA,NA,NA,NA,NA,1,1,1,2,3,2,1,1,2,2,4,2,2,3,3,4,1,1,3,2,5,2,3,4,5,3,3,4,3,2,3,2,1,4,2,4,4,4,4,4,3,1,2,2,2,4,4,4,2,3,5,2,6,3,5,3,1,4,1,3,1,1,5,7,2,2,3,6,3,3,2,5,2,2,3,3,2,2,2,7,7,2,6,5,5,4,5,5,5,2,5,5,4,5,6,5,5,5,6,4,4,2,4,4,4,4,4,2,4,5,2,2,2,3,1,3,4,5,3,2,1,2,4,5,4,4,2,3,4,4,2,5,5,2,4,5,2,3,2,1,2,2,4,5,4,4,2,4,3,4,5,3,2,2,2,1,5,4,3,2,2,4,4,2,4,1,2,2,4,1,1,4,2,4,2,2,3,4,4
"Serbia",1991,1,7,1,5,2,1,NA,NA,2,NA,36.4,36.4,36.4,44.818603515625,57,6,6,1,2,1,NA,4,4,4,4,7,7,4,4,1,NA,2,6,2,1,1,5,1,NA,1,NA,NA,NA,NA,NA,NA,NA,NA,NA,NA,5,5,5,5,5,5,5,4,4,5,5,4,4,2,2,2,1,2,1,2,2,2,1,2,5,2,2,1,1,1,1,1,1,1,1,1,1,1,1,1,1,1,1,1,1,1,1,1,1,1,1,1,1,1,1,1,1,1,1,1,1,1,1,1,1,1,1,4,1,1,1,1,7,1,1,1,1,1,1,7,1,1,1,5,5,5,5,5,5,3,5,5,1,3,1,1,1,2,2,1,1,1,1,1,1,1,1,1,1,1,1,1,1,1,1,2,2,1,2,2,2,2,5,1,5,5,5,1,1,2,1,1,1,1,5,2,3,1,5,5,5,5,5,5,5,5,1,1,3,3,1,1,3,1,1,1,1,1,5,3,1,3,5,5,5,1,1,3,1,1,1,5,1,5,1,3,1,5,1
"Portugal",1991,2,7,1,4,2,1,4,0,2,NA,36.4,36.4,36.4,40.660995483398,80,13,8,1,2,1,NA,4,4,4,2,4,4,6,4,2,3,1,NA,3,1,8,2,1,NA,1,NA,NA,NA,NA,NA,NA,NA,NA,NA,NA,4,3,3,4,5,4,3,3,4,3,4,5,5,2,3,3,2,2,2,3,2,2,3,3,3,2,2,2,2,1,2,2,1,2,2,2,4,3,4,3,2,1,1,1,2,2,2,6,6,3,3,6,6,6,5,3,2,3,2,2,2,2,7,6,2,2,4,5,1,2,2,2,4,1,4,4,1,1,2,3,3,1,1,4,5,4,4,5,3,3,3,3,5,4,5,4,5,5,6,2,2,2,3,2,2,2,2,2,2,2,3,2,3,5,1,4,5,5,2,5,2,4,2,4,3,4,2,2,2,2,4,3,1,3,4,4,4,3,5,4,5,5,4,4,4,1,1,2,2,2,3,3,3,2,1,2,4,4,4,2,2,4,3,2,4,3,4,4,4,4,3,4,2,3,5,4,3,2,3
"METU",1991,2,7,2,3,2,1,1,2,1,15,36.4,36.1,36.7,39.911697387695,60,9,3,2,2,1,NA,4,4,5,NA,3,2,6,6,1,NA,2,8,1,NA,NA,1,1,NA,2,"bkft",NA,NA,NA,NA,3,NA,NA,NA,NA,2,2,2,2,2,3,5,1,2,1,2,2,2,4,5,5,3,3,4,3,4,4,4,4,5,4,4,2,3,2,2,3,2,3,3,2,2,2,2,1,2,1,1,1,1,1,2,7,7,6,7,7,7,7,7,1,5,7,6,6,7,7,6,7,2,5,3,7,3,4,2,2,3,3,4,1,4,2,2,2,5,3,5,3,2,4,4,5,4,1,3,3,7,5,5,4,3,3,3,4,5,3,3,5,3,4,3,4,3,4,2,2,2,2,1,5,7,6,6,6,5,6,2,1,4,5,2,5,5,3,5,5,5,1,1,4,4,3,2,4,4,5,4,5,4,4,5,5,2,4,5,4,2,4,1,3,2,2,2,3,3,3,4,4,3,5,1,5,2,5,5,5,1,2,5,2,3,2,5
"VCU",1991,2,5,1,3,2,1,1,0,2,NA,36.44444444,36.61111111,36.27777778,37.552200317383,91,14.44444444,5,1,2,1,NA,4,4,5,NA,3,2,4,3,1,NA,2,3,1,NA,NA,2,1,NA,1,NA,NA,NA,NA,NA,NA,NA,NA,NA,NA,4,3,3,3,2,2,2,1,4,2,3,4,3,3,2,4,2,2,2,3,2,3,3,3,4,2,3,2,5,3,4,1,4,2,4,4,4,3,4,4,2,2,2,2,4,4,4,6,1,1,1,1,1,5,6,1,1,1,1,2,1,1,1,2,2,1,1,2,1,1,1,1,1,2,1,1,1,1,1,1,1,1,1,4,4,4,5,4,3,2,2,2,4,7,5,5,6,4,4,4,5,1,4,2,4,2,2,4,2,4,2,2,1,2,2,4,4,6,2,2,4,3,4,2,1,5,4,4,5,4,4,5,2,2,2,4,4,4,2,4,2,2,4,4,5,5,5,5,4,5,5,5,2,2,3,2,4,4,2,4,2,2,2,4,2,2,2,4,5,1,3,4,2,2,4,5,2,1,1
"Poland",1991,1,5,2,3,2,1,38,5,1,20,36.45,36.4,36.5,52.25,72,2,9,1,2,1,NA,4,2,5,1,2,3,1,1,1,NA,2,4,2,1,1,1,1,NA,1,NA,NA,NA,NA,NA,NA,NA,NA,NA,NA,4,3,2,2,4,5,4,3,2,4,4,3,2,3,3,4,3,2,3,3,4,2,4,4,4,4,5,1,1,2,4,1,1,1,1,1,1,1,1,1,1,1,1,1,1,1,1,1,1,1,1,1,1,1,1,7,1,7,1,1,1,7,1,4,4,7,7,1,7,7,7,1,7,7,7,7,7,7,6,4,4,7,7,5,1,5,5,1,5,5,5,5,7,6,6,6,7,6,6,2,2,2,2,2,2,2,4,1,2,2,2,2,1,4,2,5,7,6,7,5,6,3,2,4,1,5,1,1,1,1,1,5,5,1,1,5,5,2,5,1,1,1,5,5,1,1,1,1,1,1,1,1,5,3,4,1,4,4,4,5,2,2,4,5,3,1,2,1,4,1,1,1,5,5,1,4,3,1,1
"METU",1991,2,5,1,4,2,1,3,0,1,15,36.45,36.5,36.4,39.911697387695,64,2,3,2,2,1,NA,4,4,4,1,8,5,8,8,1,NA,2,8,1,NA,NA,1,2,8,2,"siyasi parti",NA,NA,NA,NA,7,NA,NA,NA,NA,2,3,3,1,2,2,2,2,3,5,4,2,4,3,4,3,2,2,1,2,2,3,3,3,3,3,2,2,2,2,2,4,1,2,1,4,4,4,3,4,4,1,1,1,2,1,3,5,1,2,1,2,1,1,1,1,1,1,2,2,5,1,2,1,1,1,1,2,2,1,2,1,2,1,1,2,2,1,1,2,1,2,5,4,3,4,5,3,3,1,3,4,6,5,6,4,4,4,3,2,1,1,1,2,2,4,1,2,2,1,2,2,2,2,2,5,7,5,2,6,5,5,4,2,5,4,1,1,3,5,2,5,2,5,4,2,2,4,1,5,4,5,4,5,5,4,4,5,3,2,4,3,1,2,2,1,1,3,2,4,2,3,2,5,2,2,2,3,4,5,5,5,4,5,4,5,2,5,5
"Oslo",1991,2,7,1,4,2,1,0,4,2,NA,36.45,36.4,36.5,59.912704467773,70,-2,4,1,4,1,NA,4,4,3,1,5,2,4,4,1,NA,2,8,1,NA,NA,1,1,NA,2,"Kollokvie","0","0","0","0",4,0,0,0,0,3,4,4,4,4,3,4,3,3,4,4,4,4,2,3,3,2,4,2,2,4,2,2,2,4,2,2,2,3,2,3,1,2,2,2,4,4,4,3,4,3,2,3,2,4,3,2,2,2,5,2,5,4,1,3,5,2,5,2,2,2,5,2,2,2,2,2,3,2,2,2,2,2,2,2,1,3,3,2,2,3,1,2,4,4,4,4,3,4,4,4,4,4,5,6,6,4,5,4,3,2,1,2,2,2,3,2,1,1,3,3,1,2,2,3,5,5,5,2,3,2,3,1,2,2,4,4,4,2,2,5,4,2,1,1,4,4,2,3,2,2,2,4,3,4,4,3,4,3,4,4,4,2,2,2,4,4,3,2,3,2,2,4,2,3,2,1,3,3,4,3,4,2,4,4,4,3,4,4
"SMU",1991,1,5,2,2,2,1,0,0,2,NA,36.45,36.5,36.4,1.2931060791016,70,26,5,1,2,1,NA,4,4,5,NA,2,2,3,3,1,NA,2,8,1,NA,NA,1,1,NA,1,NA,NA,NA,NA,NA,NA,NA,NA,NA,NA,2,2,3,4,2,2,2,2,2,2,2,2,4,4,3,4,3,3,2,3,3,4,3,3,4,2,3,4,5,2,5,4,4,4,2,5,4,5,4,4,3,2,4,4,4,4,4,3,3,3,4,4,3,3,5,5,3,4,3,3,3,5,3,5,3,5,3,5,4,3,4,5,4,5,3,5,5,3,5,4,4,4,4,2,2,2,2,2,2,2,2,2,1,1,1,1,1,1,1,2,4,2,4,2,2,2,2,2,4,2,2,4,3,4,4,1,2,2,2,2,2,2,2,1,3,2,2,4,2,2,2,4,2,2,4,4,2,4,2,2,2,3,4,2,3,3,2,3,2,2,3,2,2,4,2,2,2,4,2,3,2,2,4,4,2,2,2,2,4,2,3,4,2,2,2,4,2,4,2
"Serbia",1991,1,7,1,5,2,1,NA,NA,2,NA,36.5,36.6,36.4,44.818603515625,41,9,6,1,2,1,NA,4,4,4,2,7,6,4,4,1,NA,2,3,2,1,6,6,1,NA,2,"Nektaria fitnes tim",NA,NA,NA,NA,5,NA,NA,NA,NA,5,5,5,5,5,5,1,4,4,5,5,5,5,2,2,2,1,1,1,1,2,1,1,2,5,2,1,1,1,1,1,1,1,1,1,1,1,1,1,1,1,1,1,1,1,1,1,1,1,1,1,1,1,1,1,1,1,1,1,1,1,1,1,1,1,1,1,4,1,1,1,1,1,1,1,1,1,1,1,4,4,1,1,5,5,5,5,5,5,3,5,5,1,1,4,1,1,2,2,1,1,1,1,1,1,1,1,1,1,1,1,2,1,1,1,3,2,1,2,2,2,2,5,1,5,5,5,1,1,1,1,2,1,1,5,3,1,1,5,4,5,5,5,5,5,5,1,1,2,3,1,1,3,2,1,1,1,3,5,3,1,2,3,5,3,1,1,2,1,1,1,5,1,3,1,2,1,5,1
"Tsinghua",1991,2,7,1,2,2,1,2,0,2,0,36.5,36.5,36.5,30.580093383789,78,17,7,3,2,1,0,4,2,4,1,8,1,8,4,1,1,2,5,3,1,8,1,2,1,1,"Ð£ÅÅÇò¶Ó",NA,NA,NA,NA,3,NA,NA,NA,NA,3,3,3,4,5,5,1,5,1,2,5,2,5,2,4,4,2,3,2,4,2,2,4,4,4,2,1,4,4,1,4,1,1,4,4,4,4,2,1,4,2,1,4,1,1,4,4,7,2,1,2,6,1,1,2,4,1,4,4,2,1,1,1,6,1,2,2,1,2,1,2,1,2,2,1,1,1,1,4,2,2,2,2,4,4,4,4,4,4,4,4,4,3,1,4,6,4,4,6,1,2,2,2,2,2,4,2,4,2,2,2,1,2,2,2,3,4,4,4,4,4,4,1,4,4,4,1,2,2,2,4,4,2,1,3,4,4,2,1,5,2,2,2,4,4,1,1,4,4,2,4,3,1,1,1,1,4,4,4,2,2,3,4,4,4,1,3,4,4,4,1,3,1,4,4,4,3,4,2
"Oxford",1991,2,7,1,4,2,1,0,0,2,NA,36.5,36.4,36.6,51.75,86,0,5,1,2,1,NA,4,4,5,NA,4,3,7,5,2,1,2,8,1,NA,NA,3,1,NA,2,"College Student Body",NA,NA,NA,NA,2,NA,NA,NA,NA,4,5,4,4,4,4,4,4,4,4,4,4,3,2,3,4,2,2,2,2,3,2,2,2,4,1,3,3,4,2,4,3,2,3,4,4,4,3,4,3,4,2,2,2,2,2,4,2,3,2,3,2,2,2,4,2,2,2,2,2,2,2,3,3,2,2,2,2,2,2,2,2,2,6,2,2,2,2,2,2,2,2,2,5,4,4,5,4,5,3,5,5,6,6,6,6,6,6,6,2,4,1,2,3,1,2,2,3,2,2,3,2,2,4,3,4,3,4,3,2,2,2,1,3,4,4,1,5,2,3,4,4,2,1,2,3,4,2,3,3,2,3,4,3,3,4,4,4,3,3,4,4,1,1,2,3,4,4,4,3,2,2,3,3,2,2,2,4,4,2,2,3,3,2,2,4,3,3,1
"Tsinghua",1991,2,7,1,2,2,1,0,0,2,0,36.5,36.7,36.3,30.580093383789,47,5,7,3,2,1,0,4,4,5,0,5,2,5,1,1,1,1,1,1,1,1,1,2,1,2,NA,NA,NA,NA,NA,NA,NA,NA,NA,NA,2,1,2,3,4,4,2,2,2,2,4,4,2,2,2,3,4,3,2,2,3,2,3,1,4,2,1,4,4,4,4,4,4,2,3,5,4,4,4,4,2,2,4,4,4,4,2,6,2,2,3,4,3,2,5,2,3,2,3,3,1,2,1,1,2,2,5,5,4,5,6,5,2,2,5,2,6,2,4,3,5,3,6,4,4,4,4,4,3,4,2,4,4,2,4,5,5,5,5,2,2,1,3,2,4,2,2,3,2,2,2,2,2,4,2,3,5,7,2,5,1,1,2,4,3,4,2,4,2,2,4,4,3,2,5,4,2,2,4,2,2,2,4,3,3,2,2,4,4,4,2,2,2,2,2,2,2,4,3,2,2,4,2,4,2,2,2,2,4,2,2,2,2,2,2,4,4,2,4
"METU",1991,2,7,2,4,2,1,NA,NA,2,NA,36.5,36.6,36.4,39.911697387695,56,4,3,2,2,1,NA,4,2,5,NA,3,7,5,8,1,NA,2,4,1,NA,NA,1,1,NA,1,NA,NA,NA,NA,NA,NA,NA,NA,NA,NA,2,4,3,3,4,2,3,3,1,2,3,3,4,3,4,3,2,3,3,3,4,3,3,3,4,3,3,4,4,3,4,5,4,4,2,4,4,4,4,4,4,4,4,4,4,4,4,6,5,3,6,7,5,6,5,6,4,6,4,4,2,2,6,6,2,2,2,5,3,5,2,1,3,3,3,6,3,3,5,3,2,3,4,5,4,5,5,5,5,4,4,4,6,6,5,3,5,4,4,3,2,3,3,2,3,4,3,4,3,4,2,4,4,4,3,3,6,4,2,2,4,3,2,4,5,5,3,5,5,5,5,4,5,1,4,4,4,3,2,3,2,4,4,2,4,4,4,4,4,3,4,4,3,3,2,2,3,2,4,4,3,2,4,2,4,4,2,4,4,2,2,4,2,4,4,4,4,2,4
"Kassel",1991,2,6,2,5,2,1,0,0,2,NA,36.55,36.4,36.7,49.493392944336,82,10,1,1,2,1,NA,4,1,5,NA,5,1,8,5,1,NA,2,8,3,1,6,4,1,NA,1,NA,NA,NA,NA,NA,NA,NA,NA,NA,NA,4,4,4,4,2,4,2,3,3,3,4,4,4,2,2,3,2,2,2,3,3,3,2,3,5,2,3,4,5,3,4,3,4,2,4,4,2,3,4,4,3,1,3,3,3,2,2,4,3,4,4,4,2,3,4,3,5,5,1,3,1,3,3,2,1,4,6,4,5,5,4,4,4,4,5,4,7,6,3,7,6,3,4,2,4,3,4,2,2,1,4,3,2,5,5,4,2,2,3,2,2,1,2,2,1,1,3,1,1,1,1,2,2,4,3,3,3,2,2,3,3,3,5,3,2,4,2,4,2,2,4,4,2,1,1,4,4,1,4,4,1,4,5,4,4,2,3,3,3,3,2,1,3,1,3,4,3,4,3,3,2,1,1,4,2,1,1,3,4,1,1,3,3,2,4,4,3,2,4
"Poland",1991,2,5,1,3,2,1,20,0,2,NA,36.55,36.7,36.4,52.61669921875,83,-2,9,1,2,1,NA,4,4,5,1,8,2,6,6,1,NA,2,6,6,8,8,1,1,NA,1,NA,NA,NA,NA,NA,NA,NA,NA,NA,NA,1,1,2,2,2,5,2,3,2,2,3,4,1,3,4,4,4,4,3,4,3,4,4,4,4,4,2,4,4,3,3,4,4,4,4,4,4,3,4,3,3,1,2,1,1,1,4,2,1,2,5,6,5,1,1,2,1,4,2,2,2,2,6,2,1,2,2,2,2,2,2,2,1,2,1,2,2,2,6,5,5,2,2,4,5,4,5,5,5,3,4,5,7,4,5,5,7,6,6,1,2,1,2,2,3,3,1,1,2,2,4,3,1,3,2,4,5,3,2,2,4,1,4,4,4,3,4,4,1,2,5,5,4,2,4,4,2,2,2,4,2,4,4,4,4,4,2,4,4,4,5,4,2,4,2,3,1,4,4,2,2,3,4,4,3,4,2,2,5,5,3,3,3,2,2,4,3,2,3
"VCU",1991,2,7,1,3,2,1,0,0,2,NA,36.55555556,36.61111111,36.5,37.311996459961,54,8.888888889,5,1,1,1,NA,4,4,4,1,4,4,3,3,2,2,2,5,1,NA,NA,1,1,NA,1,NA,NA,NA,NA,NA,NA,NA,NA,NA,NA,5,5,5,5,5,1,5,1,5,5,5,5,5,3,3,3,3,5,3,3,3,3,3,3,3,5,1,2,2,2,2,2,2,2,2,2,2,2,2,2,2,2,2,2,2,2,2,2,1,1,1,2,1,1,1,1,1,1,2,2,1,1,1,1,1,1,1,1,1,1,1,7,1,1,1,7,1,1,1,1,1,1,1,5,5,5,5,5,5,5,5,5,1,1,1,1,1,1,1,2,2,2,1,1,2,2,2,2,2,1,2,2,1,2,1,4,3,4,3,3,3,2,2,4,5,4,5,5,5,5,2,5,5,2,5,5,2,5,2,5,2,5,2,5,5,5,5,5,2,4,5,2,2,2,2,2,2,2,2,2,2,5,5,2,5,5,2,4,5,5,5,4,2,2,4,2,2,5,5
"Poland",1991,2,7,1,3,2,1,10,9,2,NA,36.6,36.5,36.7,54.350006103516,79,-2,9,1,1,1,NA,4,4,4,1,4,3,3,3,2,1,2,3,6,2,8,1,1,NA,1,NA,NA,NA,NA,NA,NA,NA,NA,NA,NA,2,2,5,2,2,5,1,1,3,5,4,2,4,2,2,3,4,3,3,3,2,3,2,3,5,4,3,3,3,2,3,3,1,2,1,3,4,4,4,4,4,2,2,2,3,2,4,2,1,2,5,2,5,2,2,3,1,6,2,4,1,1,4,4,1,2,3,6,4,4,4,5,4,6,3,3,4,2,5,6,6,3,3,4,1,3,4,2,2,2,2,2,4,3,3,2,4,3,2,1,1,1,2,1,2,1,1,2,2,1,2,3,1,2,2,5,7,7,6,6,6,6,1,5,1,5,5,5,5,3,5,1,3,1,4,2,4,2,3,4,5,5,4,5,3,4,4,5,2,2,5,2,1,4,2,3,3,4,4,3,2,2,4,4,4,5,2,5,3,4,5,4,4,4,4,4,4,2,4
"Poland",1991,2,7,1,2,2,1,2,1,2,NA,36.6,36.4,36.8,54.350006103516,86,1,9,1,1,1,NA,4,1,2,1,1,NA,4,4,1,NA,2,8,6,2,7,1,1,NA,1,NA,NA,NA,NA,NA,NA,NA,NA,NA,NA,4,4,3,4,5,5,3,3,2,3,3,5,5,4,5,4,4,2,3,2,3,3,4,5,5,4,4,4,5,4,4,4,3,4,4,5,5,4,5,5,5,2,3,2,4,3,5,5,5,5,4,5,7,5,5,4,5,3,3,4,4,5,5,7,3,3,3,4,3,3,2,2,4,2,3,2,5,3,1,6,3,2,4,3,3,4,3,3,2,2,1,1,6,7,7,7,7,6,6,3,4,4,2,2,2,3,4,2,2,2,2,2,2,3,2,5,7,5,6,6,6,6,2,4,4,4,2,4,3,4,4,4,4,2,4,4,4,4,3,4,2,4,5,3,3,3,3,4,2,4,4,2,1,3,2,2,4,4,2,4,2,3,3,3,3,3,2,3,4,4,3,4,4,4,4,4,4,2,5
"Zurich",1991,2,7,1,5,2,1,5,0,2,NA,36.65,36.7,36.6,47.409103393555,71,8,1,1,2,1,NA,4,4,5,NA,8,6,4,3,2,6,2,8,1,NA,NA,3,1,NA,1,NA,NA,NA,NA,NA,NA,NA,NA,NA,NA,3,2,4,4,2,4,2,3,3,4,4,4,3,3,3,4,2,2,2,2,3,2,2,3,3,2,3,2,2,2,4,2,2,2,2,4,4,3,2,3,2,1,2,2,2,2,4,5,3,2,2,4,2,2,2,2,2,3,2,3,2,2,2,4,2,2,2,4,2,2,3,2,2,2,2,2,2,3,2,4,4,2,3,5,5,5,5,5,4,3,4,4,2,4,4,4,4,4,4,2,2,2,2,2,2,3,2,2,2,2,3,2,2,3,2,5,5,4,5,3,2,5,2,2,2,4,4,4,2,1,2,4,2,3,2,2,2,2,2,3,4,4,3,3,3,4,4,4,4,4,4,4,1,1,2,3,4,3,4,2,2,3,3,3,3,2,2,4,4,2,4,4,3,4,4,4,3,3,2
"SMU",1991,1,6,2,2,2,1,4,4,2,NA,36.65,36.7,36.6,1.2931060791016,79,26,5,1,2,1,NA,4,4,5,NA,8,6,6,4,1,NA,2,8,1,NA,NA,1,2,3,1,NA,NA,NA,NA,NA,NA,NA,NA,NA,NA,3,3,3,4,3,3,3,3,2,3,5,3,3,2,3,3,2,4,2,5,1,2,2,3,4,2,3,3,3,3,3,3,2,3,3,4,2,2,2,2,2,2,2,2,2,2,2,4,4,4,4,4,5,4,4,4,5,4,4,5,4,2,4,4,3,4,4,5,4,4,4,4,4,5,4,3,4,3,4,4,4,4,4,2,3,4,3,3,2,2,3,3,6,7,7,7,7,7,7,3,2,5,3,3,3,3,3,3,3,4,2,3,2,4,2,2,2,3,2,2,2,2,3,4,4,4,4,2,4,3,3,3,3,2,3,4,4,5,3,4,3,3,4,4,4,4,4,4,3,4,4,3,3,3,3,4,2,3,3,4,2,2,3,3,3,3,4,3,4,3,3,3,3,5,3,4,4,2,5
"Kassel",1991,1,5,2,3,2,1,0,0,2,NA,36.7,36.7,36.7,NA,NA,NA,1,1,2,1,NA,4,4,5,NA,5,2,5,5,1,NA,2,4,3,8,8,3,1,NA,1,NA,NA,NA,NA,NA,NA,NA,NA,NA,NA,4,2,3,5,2,4,3,4,2,4,4,1,4,3,2,2,3,2,2,2,2,2,2,2,4,2,2,3,4,2,4,2,2,2,2,2,3,3,2,3,2,2,1,2,2,2,2,4,3,4,3,4,4,2,3,5,3,3,4,5,2,3,2,4,2,3,2,3,4,4,4,4,5,4,2,2,5,5,3,5,4,3,5,5,5,5,5,4,3,5,5,5,6,3,4,5,4,4,4,3,3,1,4,2,3,3,3,4,2,2,2,2,2,4,3,3,3,2,2,2,3,2,2,3,3,4,4,4,2,3,4,4,4,3,2,3,3,2,4,4,3,4,4,4,2,3,3,4,3,3,3,2,2,2,2,1,1,4,3,2,2,4,3,4,3,2,2,4,4,2,2,2,4,2,2,2,2,2,1
"Poland",1991,2,4,1,2,2,1,3,6,2,NA,36.7,36.9,36.5,51.100006103516,78,0,9,1,1,2,2,4,4,4,1,7,4,4,3,2,1,2,8,6,1,4,1,1,NA,1,NA,NA,NA,NA,NA,NA,NA,NA,NA,NA,1,1,1,1,1,2,1,1,1,1,1,1,1,5,4,5,3,2,4,4,5,2,4,4,4,4,5,1,5,5,5,2,1,4,1,5,2,4,5,4,5,2,2,2,2,2,5,1,1,2,1,6,6,1,1,1,1,7,1,6,1,1,7,1,2,6,2,7,2,5,2,1,1,2,6,2,7,6,6,7,7,2,6,1,3,1,4,2,2,1,4,2,7,5,5,5,7,7,7,1,2,4,2,2,4,4,2,2,2,1,4,1,1,1,1,4,5,7,6,6,6,6,1,5,4,4,4,4,4,4,4,5,5,2,4,4,4,2,4,5,5,5,2,2,5,5,5,5,5,5,5,5,1,1,1,2,2,5,1,4,5,2,2,5,2,5,1,5,5,5,5,5,1,1,5,5,5,1,5
"VCU",1991,1,5,1,3,2,1,0,0,2,NA,36.75,36.77777778,36.72222222,38.926605224609,78,5.555555556,5,1,2,1,NA,4,4,5,NA,3,2,1,1,1,NA,2,2,3,1,1,1,1,NA,1,NA,NA,NA,NA,NA,NA,NA,NA,NA,NA,3,1,5,1,1,3,1,2,1,1,3,1,1,2,1,5,3,4,3,2,3,2,3,3,2,3,4,2,3,2,3,5,4,4,3,3,2,3,2,5,4,5,4,3,3,3,3,5,6,4,5,4,4,5,4,4,6,3,5,6,6,6,5,6,5,6,4,5,2,4,5,5,4,4,2,2,4,2,5,2,3,2,3,4,4,4,4,4,4,4,4,4,3,5,5,4,6,5,4,4,3,3,5,3,4,2,4,5,2,4,4,4,2,5,4,5,6,5,3,2,5,5,3,4,5,5,5,3,3,3,3,4,3,2,5,5,2,2,3,3,3,4,4,4,4,4,4,4,4,4,5,5,3,3,4,3,3,3,3,4,5,2,4,3,5,5,3,3,5,2,3,4,2,5,3,4,3,5,3
"Tsinghua",1991,2,7,1,2,2,1,0,0,2,0,36.75,36.5,37,39.928894042969,22,8,7,3,2,1,0,4,4,5,0,3,3,4,2,1,1,1,2,2,1,3,1,2,1,2,NA,NA,NA,NA,NA,NA,NA,NA,NA,NA,3,2,2,1,3,3,1,2,2,1,3,2,1,3,4,4,4,4,2,3,3,3,3,3,3,2,4,4,4,3,4,3,2,4,4,3,3,2,3,3,2,1,3,2,2,2,3,6,4,4,6,7,3,4,3,4,4,4,3,3,4,4,7,6,3,6,2,1,7,1,1,1,3,3,2,2,2,2,1,2,1,3,3,3,4,4,2,4,2,4,3,4,6,2,4,4,6,5,6,4,3,2,3,3,4,3,2,2,2,3,3,2,1,2,2,4,5,6,6,5,2,5,2,4,4,4,2,4,2,3,3,5,2,2,2,4,4,2,2,2,4,4,4,4,4,4,4,4,2,4,3,2,3,3,3,4,4,3,4,4,3,4,3,3,3,4,2,4,4,4,4,3,2,3,5,3,3,4,2
"Poland",1991,2,7,1,3,2,1,5,0,2,NA,36.76,36.81,36.71,49.816696166992,52,7,9,1,1,2,3,4,2,4,1,4,3,3,1,2,1,1,NA,6,1,1,1,1,NA,1,NA,NA,NA,NA,NA,NA,NA,NA,NA,NA,2,1,2,4,3,4,1,1,2,4,3,3,3,4,4,3,3,3,3,3,4,4,2,3,4,3,3,4,3,4,4,2,2,2,2,4,4,4,2,3,2,2,2,2,3,2,2,2,1,1,2,2,4,1,2,1,2,7,1,1,1,2,5,5,1,2,2,5,2,2,2,1,3,4,3,2,4,3,2,6,6,2,3,4,4,3,4,4,3,4,2,2,5,5,4,4,5,4,3,2,2,2,2,2,3,2,2,2,2,2,2,2,2,3,2,4,5,3,4,5,5,4,3,5,4,4,2,3,2,2,3,5,4,4,2,5,4,4,4,4,2,4,3,4,3,5,3,5,3,2,4,3,2,3,2,2,3,4,3,2,2,3,3,2,2,2,2,3,4,2,2,4,3,2,2,3,4,2,4
"METU",1991,1,4,1,4,2,1,18,8,2,NA,36.8,37,36.6,39.911697387695,69,6,3,2,2,1,NA,4,4,4,4,8,5,8,3,1,NA,2,8,1,NA,NA,1,1,NA,1,NA,NA,NA,NA,NA,NA,NA,NA,NA,NA,2,4,3,4,4,4,3,2,2,4,3,5,4,3,2,3,2,2,2,2,3,2,2,3,4,2,2,1,5,1,5,4,1,1,1,1,4,1,4,4,2,1,1,1,1,1,2,3,1,1,1,5,1,1,1,2,1,3,1,1,1,2,1,2,1,1,2,1,2,1,1,2,1,1,2,2,2,1,1,2,2,2,1,4,4,4,3,4,4,4,2,4,5,4,5,4,4,3,4,1,3,1,2,2,4,1,1,2,1,1,2,1,2,3,3,3,4,2,2,1,4,2,1,1,4,4,4,3,3,1,3,5,1,1,3,4,4,4,1,4,3,4,4,1,4,3,4,4,4,4,4,4,2,2,2,1,4,4,4,2,2,2,1,5,1,1,1,3,2,3,2,2,2,3,2,2,2,4,2
"Chile",1991,2,7,1,3,2,1,0,1,1,NA,36.8,36.8,36.8,33.449996948242,62,11,2,1,2,1,NA,4,4,4,1,4,3,6,4,1,NA,2,8,4,1,8,1,1,NA,2,"Pandemic",NA,NA,NA,NA,4,NA,NA,NA,NA,3,2,3,2,2,3,1,2,3,4,3,2,5,3,4,3,2,2,2,2,3,2,2,4,4,3,2,2,4,2,4,2,1,2,2,4,4,4,4,4,1,2,1,2,4,2,4,2,1,1,1,1,1,3,1,2,1,1,1,1,2,1,7,1,1,1,1,1,1,2,1,1,1,1,2,2,2,1,1,2,2,7,1,4,3,4,4,3,4,2,4,4,4,5,5,5,4,4,4,4,4,1,4,4,2,4,2,4,3,4,1,1,1,2,1,4,6,7,4,6,2,6,1,5,4,2,1,4,4,4,2,5,4,1,5,5,2,4,4,1,3,5,4,3,3,5,2,4,2,2,4,2,1,4,2,4,4,4,2,4,2,2,2,4,2,5,2,2,4,5,4,4,2,4,4,5,4,2,4
"VCU",1991,1,5,2,2,2,1,15,0,2,NA,36.80555556,36.77777778,36.83333333,NA,91,14.44444444,5,1,2,1,NA,4,4,5,NA,3,3,7,3,1,NA,2,8,2,8,8,2,1,NA,2,"The Underground Crew",NA,NA,NA,NA,7,NA,NA,NA,NA,3,2,2,3,2,4,3,4,2,1,3,4,2,5,5,5,3,4,2,3,5,3,3,4,5,3,5,4,4,4,5,5,4,2,5,4,4,5,3,5,4,3,3,3,4,3,4,6,7,7,7,4,7,7,6,7,7,7,3,5,5,7,5,7,4,6,4,6,5,6,4,5,5,2,6,4,6,4,4,5,6,3,6,3,3,3,3,3,4,4,4,4,3,5,5,5,4,4,6,4,5,3,3,4,4,4,2,4,4,5,3,4,3,2,3,3,5,3,2,4,5,1,4,4,5,4,2,3,3,2,3,5,4,2,2,4,3,4,3,2,2,4,4,5,4,5,5,3,2,3,3,2,4,5,2,4,3,4,3,2,3,5,5,3,4,4,3,3,4,4,3,4,3,4,3,3,3,2,3
"VCU",1991,2,7,1,3,2,1,3,0,2,NA,36.83333333,36.94444444,36.72222222,37.552200317383,97,11.11111111,5,1,2,1,NA,4,2,5,NA,2,2,3,1,1,NA,2,3,3,1,1,1,1,NA,1,NA,NA,NA,NA,NA,NA,NA,NA,NA,NA,3,4,5,5,3,3,1,1,2,1,3,2,3,3,3,4,3,3,3,3,4,3,3,3,4,2,4,4,4,2,4,2,1,1,5,3,4,4,4,4,4,1,1,1,2,1,4,7,5,7,7,5,6,7,7,5,1,5,6,5,7,7,1,7,1,3,3,6,5,5,3,4,4,5,2,2,2,2,4,4,5,5,3,4,3,4,4,5,5,2,4,4,3,4,4,4,3,2,3,2,5,1,3,2,2,4,5,3,2,1,1,3,1,2,1,4,6,6,3,3,6,6,1,2,1,5,5,4,5,3,4,1,1,1,1,1,5,1,5,3,2,3,4,2,4,5,5,5,3,3,4,3,1,2,1,4,5,4,4,3,4,4,4,3,2,3,2,1,5,4,4,3,3,2,4,5,3,1,5
"Serbia",1991,1,6,2,4,2,1,0,0,2,NA,36.85,36.8,36.9,44.818603515625,88,9,6,1,2,1,NA,4,4,5,NA,5,3,6,6,1,NA,2,3,1,NA,NA,2,1,NA,1,NA,NA,NA,NA,NA,NA,NA,NA,NA,NA,4,5,4,4,2,4,3,5,4,4,4,2,4,3,2,2,2,2,1,3,3,2,2,1,5,2,2,2,4,3,3,2,1,1,1,3,2,2,2,3,1,1,3,1,1,1,3,5,2,2,4,7,5,2,1,3,2,NA,2,3,2,2,4,2,1,3,1,5,NA,2,1,1,3,NA,1,1,7,NA,1,3,4,1,NA,5,4,4,5,5,3,2,4,3,5,5,6,4,5,3,5,2,4,1,4,1,2,1,2,4,1,1,2,2,2,3,4,3,4,3,2,4,4,3,2,4,4,4,2,1,2,4,2,5,2,2,3,3,4,3,4,4,4,4,3,4,3,3,2,2,1,5,2,2,4,1,2,2,5,5,4,3,2,3,4,4,2,1,5,4,2,3,3,4,2,4,2,5,3,5,1
"SMU",1991,1,1,1,4,2,1,0,0,2,NA,36.85,36.7,37,1.2931060791016,71,26,5,1,2,1,NA,4,4,4,1,3,3,4,2,1,NA,2,4,1,NA,NA,1,1,NA,1,NA,NA,NA,NA,NA,NA,NA,NA,NA,NA,2,3,4,4,4,2,4,2,3,4,4,3,4,3,3,4,3,2,2,3,3,3,3,3,3,3,3,4,3,4,3,2,3,3,4,3,4,2,2,2,4,4,4,3,2,4,4,5,4,3,5,5,6,5,5,2,6,3,6,3,5,5,5,5,6,5,2,5,2,5,5,3,3,3,3,2,2,2,3,2,2,2,3,5,5,4,5,5,4,4,5,5,3,6,6,6,6,6,5,2,2,2,4,3,4,2,2,2,2,2,4,4,4,4,2,4,2,3,2,2,2,2,4,4,4,4,4,4,4,4,2,5,4,4,4,5,2,4,2,2,4,4,3,3,4,3,2,4,4,4,4,4,4,4,2,4,4,5,4,4,4,3,4,3,4,4,4,4,4,4,4,4,3,4,3,4,4,2,2
"Tsinghua",1991,1,7,1,3,2,1,1,0,2,0,36.85,36.8,36.9,39.928894042969,51,7,7,3,2,1,0,4,2,5,0,2,2,5,4,1,1,2,2,2,2,1,1,1,1,2,"ÊµÑéÊÒ³ÉÔ±","Í¬Ñ§","´´ÒµÍÅ¶Ó",NA,NA,7,2,3,NA,NA,3,4,3,4,3,4,2,4,2,3,4,2,4,3,3,3,2,2,2,3,2,3,4,3,4,2,2,4,4,3,4,4,4,4,4,4,4,3,4,3,4,3,3,3,3,4,4,5,4,3,4,6,5,3,4,2,3,3,3,3,5,3,3,3,3,3,2,3,2,3,3,3,2,2,2,2,2,2,3,2,4,2,3,5,4,4,4,4,4,4,4,4,6,2,4,6,5,5,5,2,2,2,2,2,2,4,2,4,2,2,2,3,2,4,2,5,6,6,4,6,3,2,2,4,4,4,2,3,4,4,3,4,2,2,4,4,2,2,2,2,2,2,4,5,4,3,3,4,4,4,4,4,4,2,2,2,2,4,4,3,2,4,3,4,4,3,2,4,4,4,3,4,2,4,4,4,4,2,4
"Poland",1991,2,6,2,2,2,1,19,15,2,NA,36.88,36.92,36.84,51.100006103516,68,-2,9,1,3,1,NA,4,2,2,1,1,NA,5,5,1,NA,2,8,6,1,8,1,2,6,1,NA,NA,NA,NA,NA,NA,NA,NA,NA,NA,1,2,3,2,3,3,2,1,1,2,2,1,4,3,4,4,3,1,3,2,4,2,3,4,4,4,3,2,2,1,2,1,1,2,1,1,3,4,4,4,2,1,1,1,3,1,2,4,5,1,4,4,6,2,3,2,2,6,1,1,1,5,6,6,1,5,3,6,2,3,2,2,2,2,3,2,3,2,6,7,7,3,4,4,4,4,4,4,4,5,3,2,7,2,2,5,4,5,7,4,4,4,4,3,2,4,2,4,2,2,2,1,1,3,2,5,5,6,4,4,2,4,2,2,1,5,4,4,1,2,4,3,2,1,1,2,5,2,3,2,3,5,5,4,3,4,4,4,4,4,3,2,3,3,3,2,4,3,4,1,2,5,4,4,4,3,1,4,4,4,3,2,5,5,2,5,3,1,2
"Tsinghua",1991,2,7,2,3,2,1,0,0,2,0,36.9,36.8,37,30.580093383789,60,13,7,3,2,1,0,2,2,5,0,8,4,7,4,1,1,2,5,1,1,1,3,2,1,2,NA,NA,NA,NA,NA,NA,NA,NA,NA,NA,4,4,4,4,5,4,1,4,2,4,5,4,3,2,3,2,2,2,2,2,1,3,4,1,4,2,1,2,2,2,4,1,1,3,4,4,4,2,4,2,4,2,2,2,2,2,2,6,2,2,6,6,2,2,2,4,2,2,2,2,4,2,6,2,2,2,2,2,2,2,1,1,2,2,2,2,6,2,1,2,2,2,2,5,4,4,4,4,4,2,4,4,2,1,4,4,3,2,2,1,2,1,2,1,1,1,2,2,2,1,2,4,2,4,2,3,6,7,1,3,1,4,1,4,4,4,1,3,2,2,3,5,1,1,4,3,3,2,1,4,2,3,4,5,4,2,2,4,3,3,4,4,1,1,2,2,4,4,4,3,2,4,4,4,3,2,3,4,3,2,2,2,4,4,3,4,3,4,4
"Tsinghua",1991,2,4,2,2,2,1,0,0,2,0,36.9,36.7,37.1,30.580093383789,87,17,7,3,2,1,0,4,4,5,0,8,1,5,3,1,1,2,4,1,1,3,1,2,1,2,NA,NA,NA,NA,NA,NA,NA,NA,NA,NA,3,2,3,3,5,5,3,3,2,3,4,1,4,4,3,3,2,2,3,2,4,3,3,2,3,4,2,2,4,1,4,2,4,2,4,4,4,4,4,3,3,2,2,2,2,2,4,5,5,5,6,5,5,5,6,3,5,2,4,3,3,5,6,6,2,5,2,3,3,3,3,5,2,3,2,3,4,2,5,3,3,2,3,5,5,5,5,5,5,5,5,5,6,2,4,5,7,7,6,2,4,4,2,4,4,4,2,2,3,2,2,4,1,4,2,2,2,4,2,2,2,4,2,4,4,4,2,4,2,2,4,4,4,2,2,4,4,2,4,4,1,2,4,4,4,2,4,4,4,4,4,4,2,2,2,4,2,4,4,2,2,4,4,4,4,2,2,4,4,2,2,4,3,2,2,2,4,2,4
"SMU",1991,2,7,1,3,2,1,3,0,2,NA,36.9,36.8,37,1.2931060791016,70,26,5,1,2,1,NA,4,4,5,NA,4,2,3,2,1,NA,2,8,1,NA,NA,1,1,NA,1,NA,NA,NA,NA,NA,NA,NA,NA,NA,NA,4,3,2,4,4,2,4,4,4,3,4,4,4,3,3,4,4,2,2,2,3,3,3,3,4,2,3,5,5,5,5,4,4,4,5,4,5,5,5,5,5,4,4,4,4,4,5,6,5,5,6,7,6,5,6,3,5,3,5,4,3,3,6,7,2,3,1,2,3,2,5,6,2,2,1,1,1,1,5,2,2,3,2,5,4,5,5,5,5,5,5,5,5,5,5,5,6,5,5,2,4,1,2,2,2,2,3,2,2,2,2,2,2,4,4,3,3,5,1,2,1,3,2,5,2,4,2,4,4,4,4,5,3,1,4,5,5,5,5,4,2,4,5,4,4,4,2,4,2,2,4,2,2,3,2,2,2,4,4,2,1,4,4,4,2,2,1,2,4,2,2,2,2,4,4,4,2,1,5
"Poland",1991,2,7,2,4,2,1,13,6,2,NA,36.93,36.99,36.87,51.100006103516,72,0,9,1,2,1,NA,4,2,5,1,4,3,6,4,1,NA,2,8,2,1,1,1,2,4,2,"studenci i wyk?adowcy","zesp¨®? wokalny","kurs niemieckiego",NA,NA,10,5,3,NA,NA,2,2,1,4,4,3,1,1,2,2,3,3,3,3,3,4,3,3,3,3,3,3,2,4,4,4,3,3,4,2,4,2,2,2,1,2,4,3,3,4,2,2,2,2,2,2,4,5,5,5,5,6,6,2,3,5,4,3,2,2,3,5,6,7,2,3,2,2,1,4,1,2,3,3,2,2,3,3,2,3,3,3,3,4,4,4,5,5,3,2,3,3,5,5,5,5,7,6,6,3,3,2,4,4,2,4,2,4,3,3,3,4,1,2,2,5,8,7,7,6,7,7,2,5,4,5,2,2,2,3,2,5,3,2,4,4,3,3,2,4,3,5,4,4,4,4,4,4,4,4,4,4,2,3,2,1,2,3,2,3,4,4,2,3,4,2,3,4,4,4,3,4,4,4,4,3,3,3,2
"Serbia",1991,2,6,1,3,2,1,0,0,1,15,37,36.9,37.1,44.818603515625,56,6,6,1,2,1,NA,4,4,2,1,4,4,4,4,1,NA,1,NA,3,7,8,1,1,NA,1,NA,NA,NA,NA,NA,NA,NA,NA,NA,NA,2,2,2,5,5,4,1,1,4,5,4,2,2,4,4,4,3,3,3,3,3,3,2,3,4,2,4,1,2,2,1,1,1,3,1,4,1,4,4,1,1,1,2,2,2,1,4,5,4,2,8,5,5,2,2,3,2,4,2,2,2,2,4,5,3,2,NA,2,NA,2,2,2,NA,NA,NA,NA,NA,NA,2,6,NA,NA,NA,5,5,5,5,5,5,5,5,5,5,5,4,4,6,5,5,2,1,2,2,2,2,2,2,2,1,2,2,2,2,2,2,3,3,4,1,2,1,2,4,2,2,4,3,4,3,3,4,4,4,4,4,3,5,2,4,5,5,3,3,3,3,3,1,1,3,2,4,4,2,4,2,2,1,4,1,4,4,4,2,4,4,4,2,5,4,4,3,4,2,1,4,1,2,1,4
"Oslo",1991,2,7,1,3,2,1,10,0,2,NA,37,37,37,59.986206054688,77,-6,4,1,2,1,NA,4,4,5,NA,5,3,4,8,2,1,2,5,1,NA,NA,1,1,NA,1,NA,NA,NA,NA,NA,NA,NA,NA,NA,NA,4,4,3,4,4,3,2,3,4,4,4,3,4,3,3,3,2,3,3,3,3,2,3,3,4,3,3,3,2,2,3,2,2,4,2,3,4,4,4,3,2,2,2,3,2,2,4,2,2,2,2,4,2,2,2,6,2,4,2,2,2,2,4,2,2,2,2,2,2,2,3,5,5,3,4,2,4,4,3,2,4,2,3,4,4,4,4,4,4,3,3,3,5,6,6,6,6,6,5,3,2,3,2,3,3,2,2,2,2,2,2,2,2,4,3,3,5,3,4,4,4,4,3,4,3,4,3,3,3,3,3,4,2,4,4,4,4,3,4,3,4,4,3,3,4,4,4,4,4,4,3,3,2,2,2,2,3,4,2,2,2,2,4,3,4,3,3,3,3,2,3,3,3,4,4,3,3,3,3
"Oxford",1992,1,6,1,3,2,1,0,1,2,NA,35.05,34.2,35.9,51.75,74,2.777777778,5,1,2,1,NA,4,4,5,NA,5,2,5,4,1,NA,2,8,1,NA,NA,6,1,NA,2,"Orchestra","Choir",NA,NA,NA,10,5,NA,NA,NA,3,3,4,4,2,3,3,4,3,3,4,3,4,3,4,4,2,3,3,3,3,3,3,4,4,2,3,3,4,3,4,4,4,3,4,4,2,1,3,4,2,2,4,2,4,3,4,5,5,2,5,7,6,3,6,2,5,4,3,2,3,2,5,2,5,2,2,2,2,2,2,3,2,2,2,3,2,2,1,2,2,2,3,4,4,4,5,4,4,3,4,4,6,6,4,5,6,5,3,4,3,1,4,4,3,4,3,2,3,4,2,1,2,2,3,5,6,6,6,5,5,5,2,3,3,4,3,2,1,2,2,5,2,2,3,3,4,2,2,1,4,4,3,3,2,4,4,4,3,4,3,3,2,2,4,2,3,4,4,2,1,2,3,4,3,2,3,3,4,4,3,4,2,4,4,3,2,3,3
"Oslo",1992,1,1,2,2,2,1,0,7,2,NA,35.4,34.3,36.5,59.916702270508,58,-2,4,1,2,1,NA,4,1,5,NA,1,NA,1,1,1,NA,1,NA,1,NA,NA,1,1,NA,2,"Studentforening",NA,NA,NA,NA,6,0,0,0,0,4,3,4,4,2,4,2,3,2,4,4,3,4,4,4,4,3,4,4,3,4,4,4,1,3,4,3,2,4,1,4,1,1,2,2,4,4,4,3,4,3,1,3,4,2,2,4,2,2,3,2,3,2,2,6,2,2,2,2,3,2,3,5,5,2,3,3,6,6,3,6,3,5,5,3,4,6,2,5,6,6,3,5,2,1,3,2,1,1,1,1,1,1,2,2,2,2,2,1,2,3,2,3,2,2,2,3,2,2,2,1,2,2,3,2,5,5,2,1,4,4,2,2,2,4,4,1,2,2,2,4,5,5,2,4,4,4,4,2,4,1,2,4,4,3,2,2,2,2,2,2,2,4,5,4,2,1,4,4,2,2,4,2,4,2,2,2,1,4,2,2,2,4,2,2,4,4,2,4
"METU",1992,1,4,2,3,2,1,13,0,2,NA,35.45,35.3,35.6,39.911697387695,70,3,3,2,2,1,NA,3,1,5,NA,4,4,4,4,1,NA,2,3,1,NA,NA,1,2,3,2,"k?pr¨¹ sosyal sorumluluk",NA,NA,NA,NA,3,NA,NA,NA,NA,3,3,2,3,2,3,2,2,2,3,4,2,4,3,3,3,3,3,3,3,4,3,3,3,4,3,3,4,4,2,2,2,2,2,2,4,3,3,3,3,3,3,3,3,3,2,3,5,5,5,5,5,5,4,3,3,3,3,5,5,5,5,5,5,3,3,3,3,3,5,5,3,3,3,3,3,5,3,3,5,3,3,3,2,2,2,4,2,2,2,2,2,6,4,4,3,4,4,4,3,4,4,4,3,3,4,4,2,3,4,2,2,2,4,2,4,4,3,2,2,2,1,4,4,4,4,4,2,2,3,3,4,3,2,2,4,4,4,4,4,3,3,4,2,3,4,3,4,2,4,4,2,2,4,3,2,2,2,2,4,2,3,2,4,2,2,2,4,3,4,4,4,2,4,4,4,3,4,3
"Oxford",1992,2,7,1,4,2,1,0,0,2,NA,35.45,34.8,36.1,51.75,86,0,5,1,2,1,NA,4,4,5,NA,6,5,6,4,1,NA,2,8,1,NA,NA,1,1,NA,1,NA,NA,NA,NA,NA,NA,NA,NA,NA,NA,2,2,2,5,4,3,2,3,3,4,4,3,4,2,3,2,2,2,2,3,2,2,2,2,4,2,2,3,4,4,4,3,2,4,1,5,4,4,2,4,3,1,2,2,3,2,4,1,1,1,1,1,1,1,1,1,1,1,1,1,1,1,5,1,1,1,1,1,1,1,1,1,1,1,1,1,1,1,1,1,1,1,1,4,4,4,5,5,4,4,4,4,6,6,5,5,5,4,4,1,2,2,2,2,1,2,3,2,3,1,2,4,2,3,3,1,2,3,2,2,2,2,1,3,2,4,2,4,1,2,4,4,3,1,2,3,4,2,4,3,2,3,3,5,2,4,4,4,3,3,3,2,1,2,1,3,5,4,4,3,2,4,4,2,3,3,2,4,4,2,3,2,3,5,4,4,2,2,4
"Oxford",1992,1,1,2,2,2,1,0,0,2,NA,35.6,35.1,36.1,51.75,74,2.777777778,5,1,2,1,NA,1,NA,1,NA,2,4,3,2,2,2,2,6,3,1,4,1,1,NA,1,NA,NA,NA,NA,NA,NA,NA,NA,NA,NA,5,3,4,5,5,5,1,5,3,5,5,5,5,1,1,3,2,2,1,3,3,1,3,3,5,1,2,2,2,2,2,2,2,2,2,4,3,2,2,2,2,2,2,2,2,2,2,2,2,2,2,2,2,2,2,2,2,6,2,2,2,4,2,2,2,2,3,2,2,3,2,1,3,2,4,4,5,2,2,3,4,2,2,4,4,4,4,4,4,4,4,4,3,4,4,4,4,3,3,2,2,2,1,2,3,2,2,2,2,2,2,2,2,3,2,3,4,4,2,2,3,2,2,4,4,4,4,4,2,4,4,4,2,2,2,3,2,2,4,4,3,4,4,3,4,4,4,4,3,4,4,4,2,2,3,2,4,4,4,4,2,4,3,4,4,2,2,4,2,2,2,2,2,2,2,4,4,2,2
"Tsinghua",1992,1,7,2,2,2,1,2,1,2,0,35.65,35,36.3,39.928894042969,22,8,7,3,2,1,0,4,1,5,0,1,0,6,5,1,1,2,8,1,1,1,3,2,1,1,"Ó¾Ð­",NA,NA,NA,NA,2,NA,NA,NA,NA,3,4,3,3,4,4,2,4,3,4,4,4,4,2,3,4,2,3,2,3,3,3,2,3,4,2,1,2,4,2,4,2,2,2,3,4,4,2,4,4,2,2,2,2,2,2,4,2,4,2,2,4,2,3,4,3,2,2,2,4,2,2,2,5,2,4,2,6,4,2,2,4,4,2,4,4,3,2,2,4,6,4,4,4,4,4,4,4,4,3,4,4,2,3,4,4,4,3,3,2,2,2,1,2,2,2,2,2,2,1,1,1,2,2,2,2,2,2,2,2,1,2,3,4,4,4,2,4,3,4,3,4,4,2,4,4,3,4,4,4,3,3,4,4,4,2,2,4,3,3,4,4,4,3,3,2,2,4,4,4,2,4,4,4,4,2,4,3,3,2,2,3,2,4,4,3,3,2,2
"Chile",1992,1,6,1,3,2,1,1,5,1,NA,35.65,35.7,35.6,33.426280975342,82,8,2,1,2,1,NA,4,4,4,1,2,2,5,4,1,NA,2,8,1,NA,NA,1,1,NA,1,NA,NA,NA,NA,NA,NA,NA,NA,NA,NA,4,3,3,2,3,3,2,3,3,2,3,4,3,2,4,3,3,3,3,3,4,3,3,4,4,4,2,4,4,3,4,4,3,3,3,4,3,4,4,3,2,2,4,3,3,2,3,4,5,4,4,4,5,4,4,4,4,4,4,4,4,4,4,4,4,4,4,4,4,4,4,4,4,4,4,4,4,4,4,4,4,3,4,4,4,4,4,4,4,3,4,3,3,5,6,5,4,4,4,2,2,2,4,2,2,3,2,3,3,3,2,3,3,3,4,3,4,4,2,3,2,2,3,3,3,3,3,4,4,3,4,4,3,2,3,3,3,3,2,2,3,3,3,4,3,4,4,4,3,3,3,3,2,3,2,3,2,3,4,2,3,3,4,3,4,3,2,3,3,3,3,3,3,3,3,3,3,3,2
"SMU",1992,1,6,1,4,2,1,0,3,1,2,35.7,35.6,35.8,1.2931060791016,71,26,5,1,1,1,NA,4,4,4,2,2,3,4,1,1,NA,2,3,1,NA,NA,1,1,NA,1,NA,NA,NA,NA,NA,NA,NA,NA,NA,NA,3,2,3,2,2,3,2,2,3,2,4,3,2,4,4,3,2,2,2,2,3,2,2,4,5,2,3,5,4,4,4,4,4,4,4,4,4,4,3,4,3,2,2,4,4,4,2,5,5,5,5,5,5,5,5,3,3,3,5,5,5,3,3,5,3,5,3,5,3,3,5,5,3,5,3,3,3,3,5,3,3,3,3,5,4,5,5,5,5,4,4,4,3,2,2,2,2,2,2,2,4,2,2,2,2,2,4,2,2,3,2,4,2,4,4,4,6,5,6,6,2,2,5,5,5,1,1,1,5,5,1,5,5,5,5,5,1,5,1,1,3,4,4,4,4,4,4,4,3,3,4,2,3,3,2,2,2,4,5,2,2,2,3,2,3,2,4,4,3,4,4,3,2,2,2,3,2,2,2
"VCU",1992,1,6,2,2,2,1,6,6,2,NA,35.71666667,35.75,35.68333333,37.54150390625,88,10,5,1,2,1,NA,4,2,5,NA,4,2,4,4,1,NA,2,3,3,1,3,1,1,NA,1,NA,NA,NA,NA,NA,NA,NA,NA,NA,NA,4,4,3,5,4,4,2,2,4,2,4,5,5,2,2,5,3,3,2,3,4,3,3,2,5,2,3,3,2,4,4,2,2,1,4,5,2,4,2,3,2,1,3,4,4,3,2,4,4,5,6,6,6,2,6,5,4,5,5,5,6,3,6,5,4,5,3,4,2,2,3,3,5,5,3,4,6,4,3,3,4,4,5,4,3,4,4,4,2,2,2,2,5,4,3,4,4,5,4,2,4,1,3,2,1,2,2,2,1,1,2,2,2,3,3,3,3,3,2,2,2,1,2,3,4,5,2,2,3,3,3,4,2,2,3,4,3,4,1,2,2,4,4,4,2,4,2,3,3,4,3,3,2,2,2,1,5,5,5,2,2,4,4,3,4,1,3,3,4,2,2,4,2,3,2,2,2,2,4
"Oxford",1992,2,7,1,4,2,1,0,0,2,NA,35.8,35.3,36.3,51.75,88,-2.222222222,5,1,2,1,NA,2,2,4,1,3,1,6,3,1,NA,1,NA,2,8,8,1,1,NA,2,"Oxford University Roleplaying Society",NA,NA,NA,NA,2,NA,NA,NA,NA,3,3,3,2,4,4,2,3,3,2,4,3,4,3,4,4,3,3,3,3,3,3,3,4,5,2,4,1,1,1,4,1,2,4,1,4,4,4,4,3,4,2,3,4,5,2,4,4,4,2,4,1,4,3,3,2,2,2,1,1,3,6,1,6,1,4,2,6,4,2,2,3,2,5,2,2,2,1,2,3,3,2,2,3,2,3,3,2,3,4,4,3,5,5,4,3,3,3,3,2,3,1,3,3,2,4,3,2,3,4,1,2,2,3,2,4,6,2,4,3,4,4,1,3,5,4,2,2,2,2,4,5,4,1,5,4,3,3,3,3,2,3,5,5,5,3,3,4,2,2,3,2,2,2,2,2,1,3,4,5,1,3,4,3,2,2,3,3,4,3,3,2,3,2,2,3,2,2,4
"SMU",1992,1,6,1,3,2,1,1,0,2,NA,35.8,35.8,35.8,NA,79,26,5,1,2,1,NA,4,4,5,NA,8,3,8,7,1,NA,2,8,1,NA,NA,1,1,NA,2,"Dance Group",NA,NA,NA,NA,6,NA,NA,NA,NA,3,3,4,4,3,4,1,3,4,4,4,4,4,2,2,2,3,1,2,1,3,1,2,2,3,3,2,2,4,1,4,4,2,1,4,4,4,4,4,4,2,1,2,4,1,1,5,5,4,3,5,5,4,2,6,3,2,4,4,4,4,3,2,5,2,5,3,3,3,4,3,2,4,3,4,2,4,3,3,3,4,3,4,4,4,4,4,4,4,2,3,3,3,5,3,5,3,2,3,1,3,1,3,1,1,2,2,2,2,2,2,2,2,1,2,3,4,4,1,2,2,3,2,2,4,4,3,2,2,2,4,3,4,5,5,5,5,3,2,4,4,4,4,4,4,4,4,4,3,2,4,3,3,4,2,4,2,3,2,4,3,2,3,4,3,3,4,4,4,2,3,2,2,2,3,3,3,2,4
"VCU",1992,1,7,1,4,2,1,7,0,2,NA,35.80555556,35.88888889,35.72222222,37.553802490234,57,17.22222222,5,1,4,1,NA,4,4,5,NA,3,1,7,7,1,NA,2,5,3,8,8,1,1,NA,1,NA,NA,NA,NA,NA,NA,NA,NA,NA,NA,2,4,4,4,4,3,4,3,3,3,5,4,3,3,2,3,2,2,1,2,2,3,2,2,4,2,3,2,4,2,4,3,2,4,3,2,4,4,4,4,3,1,1,2,2,2,2,5,2,1,5,1,5,3,6,5,1,5,1,2,6,5,1,1,1,1,1,1,1,1,1,1,1,1,1,1,1,1,1,1,1,1,1,4,2,5,5,3,4,3,3,3,5,5,5,4,5,4,4,1,1,2,1,1,1,1,2,1,1,1,2,2,1,2,1,5,5,6,5,3,4,5,4,5,5,3,1,2,5,3,2,5,5,3,4,5,2,4,3,3,3,4,4,5,3,5,4,5,2,3,5,3,1,5,1,1,4,4,4,2,2,4,4,3,3,3,4,4,4,4,5,3,3,3,4,4,3,4,3
"Kassel",1992,2,5,2,3,2,1,NA,0,1,6,35.85,35.1,36.6,51.316696166992,54,1,1,1,4,1,NA,4,4,4,1,2,1,6,6,1,NA,2,5,3,4,4,1,1,NA,1,NA,NA,NA,NA,NA,NA,NA,NA,NA,NA,2,2,3,4,2,3,2,3,3,4,5,4,5,3,3,3,2,2,1,2,3,2,2,3,4,2,2,4,5,2,5,3,1,2,2,4,3,4,2,2,2,1,1,1,2,4,1,1,3,1,2,4,2,2,1,1,5,1,3,2,1,2,1,1,1,5,1,4,7,5,3,3,1,7,3,2,3,3,2,3,5,2,2,5,4,4,3,4,3,2,4,5,6,6,5,5,5,3,3,2,4,1,2,1,2,2,4,2,2,1,2,2,2,3,1,4,3,5,3,3,2,4,5,3,1,5,4,3,3,2,5,3,2,1,1,2,3,4,4,3,3,4,4,4,3,5,4,5,3,3,5,4,1,4,1,3,3,4,3,2,2,4,4,3,4,5,2,4,4,4,3,5,4,5,4,5,4,1,4
"VCU",1992,1,4,1,3,2,1,2,17,2,NA,35.94444444,35.16666667,36.72222222,37.553802490234,91,14.44444444,5,1,4,1,NA,4,3,5,NA,1,NA,8,8,1,NA,2,5,2,1,1,2,1,NA,1,NA,NA,NA,NA,NA,NA,NA,NA,NA,NA,2,2,2,1,1,3,1,3,1,1,4,2,1,3,3,4,3,3,2,2,3,3,3,2,3,1,3,4,5,3,5,1,2,4,1,4,4,4,4,5,4,3,3,3,4,2,4,2,2,1,2,1,5,5,3,2,1,7,2,2,1,6,1,5,1,6,3,1,6,6,7,7,4,2,1,3,2,1,6,2,2,1,2,5,2,4,4,4,5,5,5,4,7,7,7,7,7,6,7,4,5,1,3,1,2,4,2,2,4,2,1,1,2,1,1,2,2,1,1,1,2,1,1,4,5,5,4,1,4,3,3,5,4,1,4,4,4,5,3,2,4,3,1,1,4,4,3,5,1,3,4,1,2,5,4,1,2,5,2,4,5,2,2,5,1,4,2,4,5,2,5,4,4,5,5,2,3,3,3
"METU",1992,1,7,2,3,2,1,10,0,1,20,35.95,35.8,36.1,39.911697387695,64,6,3,2,2,1,NA,4,4,5,NA,7,3,4,2,1,NA,2,8,1,NA,NA,1,1,NA,1,NA,NA,NA,NA,NA,NA,NA,NA,NA,NA,4,1,2,2,4,3,1,4,2,2,5,5,5,4,5,4,3,3,4,3,3,4,3,5,4,3,3,1,1,1,1,4,1,1,1,1,5,4,4,5,4,1,1,1,1,1,4,7,7,7,7,7,7,7,7,6,4,7,6,5,7,7,6,7,2,2,2,2,2,2,1,1,2,2,2,1,2,2,2,2,2,1,5,5,5,5,5,5,5,5,5,5,7,6,5,4,7,6,6,4,5,3,4,4,4,5,4,3,5,4,1,1,2,5,2,5,5,7,2,2,4,3,4,4,5,5,3,2,2,2,2,5,5,1,3,4,4,4,3,1,4,4,3,5,2,5,5,5,5,3,4,4,1,1,1,1,5,5,4,3,1,4,4,2,5,5,3,4,4,5,5,5,2,4,5,5,3,2,3
"Southampton",1992,1,6,1,2,2,1,0,0,2,NA,36,35.7,36.3,50.917098999023,60,3,5,1,2,1,NA,4,3,5,NA,3,1,2,2,2,1,2,5,1,NA,NA,1,1,NA,2,"frisbee club",NA,NA,NA,NA,5,NA,NA,NA,NA,2,2,2,3,2,3,2,2,2,3,3,2,3,3,3,3,3,3,3,3,3,3,3,3,3,3,3,3,3,3,3,3,3,3,3,3,3,3,3,3,3,3,3,3,3,3,3,4,4,4,4,4,3,5,4,4,4,5,4,4,5,4,4,5,5,4,4,5,4,4,5,5,4,5,4,4,4,4,5,4,6,4,5,4,3,4,3,4,3,3,3,3,3,4,4,4,4,4,4,3,3,2,3,3,3,3,3,2,3,2,2,3,2,3,3,2,2,3,2,2,2,2,2,3,4,4,3,3,2,4,3,4,3,3,4,3,4,4,3,4,2,3,4,4,4,4,3,3,3,3,3,3,3,3,3,2,4,3,3,4,3,3,3,3,2,3,2,3,3,3,3,3,3,4,3,3,3,3,2
"Kassel",1992,2,5,2,3,2,1,20,0,2,NA,36.1,36.1,36.1,49.375701904297,82,1,1,1,3,1,NA,4,4,5,NA,6,6,6,6,1,NA,2,4,2,1,2,3,1,NA,1,NA,NA,NA,NA,NA,NA,NA,NA,NA,NA,2,2,4,4,2,3,1,3,3,2,4,4,4,4,3,4,3,3,3,3,3,2,3,3,3,2,3,2,4,2,4,2,2,2,2,4,4,4,5,3,3,1,2,2,2,1,4,5,4,3,5,6,5,4,5,4,3,5,5,5,3,3,4,2,1,4,3,5,3,4,1,2,2,5,3,3,3,4,2,6,6,2,4,4,4,4,3,4,4,4,4,4,7,5,5,6,6,5,6,3,2,5,2,3,4,3,4,1,3,2,1,1,2,2,1,4,7,6,6,3,3,3,2,4,1,3,2,4,2,2,4,4,2,1,1,4,4,1,2,2,3,5,4,3,4,5,3,4,2,4,4,2,1,3,2,3,3,4,3,2,2,4,4,4,2,3,2,4,4,5,4,4,5,5,4,2,3,4,2
"VCU",1992,1,7,1,3,2,1,12,28,2,NA,36.13888889,36.16666667,36.11111111,37.552200317383,64,10.55555556,5,1,1,1,NA,4,2,4,2,3,1,4,4,1,NA,2,8,1,NA,NA,1,2,4,1,NA,NA,NA,NA,NA,NA,NA,NA,NA,NA,3,4,5,4,3,3,2,3,5,5,5,3,4,2,5,5,1,1,1,2,2,3,1,5,5,1,5,2,4,2,2,3,2,2,2,3,4,4,4,4,3,1,1,1,1,1,3,2,2,2,2,3,5,2,5,1,2,2,2,6,5,5,1,7,1,3,2,2,2,2,4,3,2,2,1,1,1,1,3,3,2,7,3,5,4,5,5,4,5,5,5,5,7,7,7,7,7,6,7,4,4,2,4,4,2,3,4,4,3,4,3,1,1,3,2,5,7,5,6,2,4,4,2,3,4,4,2,4,1,1,2,4,3,2,2,2,4,2,4,2,2,4,5,4,4,5,4,4,4,2,4,4,2,2,2,2,2,4,4,2,2,4,5,4,3,2,2,3,4,2,2,3,2,3,4,2,2,2,1
"Kassel",1992,1,7,2,2,1,1,0,0,2,NA,36.15,36.1,36.2,51.305603027344,51,14,1,1,2,1,NA,4,1,5,NA,2,1,4,1,1,NA,2,4,1,NA,NA,1,1,NA,1,NA,NA,NA,NA,NA,NA,NA,NA,NA,NA,3,3,4,4,3,4,4,3,3,3,4,3,3,3,2,3,2,2,2,2,3,3,3,3,3,3,3,1,2,1,1,1,1,1,1,2,2,2,1,1,1,1,1,1,1,1,1,4,4,4,4,4,4,4,4,4,4,4,4,4,4,4,4,2,4,4,4,4,4,4,4,4,4,4,4,4,4,4,4,4,4,4,4,4,4,4,4,2,2,2,4,2,4,1,2,2,2,2,3,2,2,2,2,2,2,2,2,2,2,2,4,4,2,2,2,4,5,4,5,2,5,5,3,3,3,4,4,2,5,4,2,2,2,4,2,3,2,2,2,4,2,4,4,3,4,4,4,3,3,3,3,2,3,2,2,2,3,4,2,3,3,4,2,4,2,2,3,4,4,4,4,4,3,3,3,3,3,4,4
"Oxford",1992,2,7,1,3,2,1,0,0,2,NA,36.15,35.5,36.8,51.75,74,2.777777778,5,1,1,1,NA,2,2,4,1,1,NA,5,5,1,NA,2,2,3,1,1,1,1,NA,1,NA,NA,NA,NA,NA,NA,NA,NA,NA,NA,2,2,4,3,2,2,2,2,2,3,3,3,2,3,3,3,2,2,2,3,2,3,2,3,4,2,2,3,4,2,4,2,2,2,4,4,4,4,4,4,3,2,3,2,2,2,3,3,3,2,3,2,4,5,3,4,2,4,2,2,2,3,2,5,2,2,2,2,3,2,3,3,2,2,1,1,5,2,2,3,4,2,2,4,4,4,4,4,4,2,2,2,4,5,5,5,4,4,4,3,2,2,3,4,2,3,4,3,2,2,3,2,2,2,2,5,7,4,4,3,2,3,2,4,4,4,2,3,3,2,4,4,3,1,3,4,4,2,2,2,3,2,4,4,4,4,4,4,3,4,4,3,2,3,2,2,2,4,2,4,2,2,2,3,2,3,2,4,3,4,4,4,2,4,2,3,2,2,4
"Oslo",1992,2,7,2,5,2,1,0,12,2,NA,36.2,35.8,36.6,59.912704467773,93,1,4,1,2,1,NA,4,4,5,NA,8,5,8,6,2,1,2,4,3,1,8,1,1,NA,2,"Trening","0","0","0","0",5,0,0,0,0,4,5,5,4,5,5,4,5,2,2,4,3,2,4,4,4,2,2,2,1,4,2,1,4,3,1,4,5,5,4,5,5,5,5,5,5,5,5,5,5,5,5,5,5,5,5,5,6,2,5,7,5,5,2,5,5,1,2,4,5,7,2,5,7,1,2,3,6,5,3,1,5,3,2,3,2,2,3,2,3,3,1,3,5,5,5,5,5,5,5,5,5,5,5,5,5,5,5,5,4,3,2,2,4,2,4,4,3,4,5,2,4,2,2,2,4,6,5,3,2,3,2,4,4,4,3,3,1,5,5,1,4,2,3,5,4,2,4,2,2,5,5,4,2,5,5,5,5,5,5,5,5,3,3,3,1,1,5,3,1,2,1,1,5,4,4,5,4,4,4,4,5,5,5,5,5,5,5,1
"Zurich",1992,2,1,2,5,2,1,2,0,2,NA,36.25,36.2,36.3,50.083297729492,64,4,1,1,2,1,NA,4,1,5,NA,3,3,5,5,1,NA,2,4,3,4,6,3,2,1,1,NA,NA,NA,NA,NA,NA,NA,NA,NA,NA,4,4,5,3,4,5,3,4,4,2,5,4,2,4,2,4,1,2,2,2,3,2,2,4,4,1,3,3,4,1,2,2,1,2,1,2,3,4,4,3,4,3,4,4,2,2,4,5,2,1,3,3,5,2,2,2,3,7,1,5,3,3,5,1,2,1,1,3,2,2,1,1,2,7,3,2,2,3,1,7,1,1,2,5,1,5,5,1,4,4,4,5,5,5,7,6,4,5,5,3,1,4,1,1,2,2,1,1,1,3,1,1,1,1,1,4,6,7,5,6,6,7,2,4,4,4,4,2,4,3,3,3,4,1,5,4,2,3,2,4,3,4,4,5,3,4,5,3,1,3,4,1,3,5,4,4,2,5,1,4,2,3,4,3,4,4,4,4,4,4,3,4,5,3,5,3,3,3,5
"Zurich",1992,2,3,1,4,2,1,0,2,1,10,36.25,36.1,36.4,47.144897460938,86,6,1,1,1,1,NA,4,1,4,1,2,1,5,4,1,NA,2,4,3,1,8,1,1,NA,1,NA,NA,NA,NA,NA,NA,NA,NA,NA,NA,2,2,3,4,2,2,2,2,2,2,3,2,4,2,2,3,2,2,2,2,2,2,1,3,4,2,2,4,2,3,4,1,1,2,2,3,4,2,2,4,2,1,2,1,2,2,3,3,2,2,2,2,1,1,1,5,2,2,1,2,1,2,1,1,1,1,2,2,2,2,2,2,1,2,2,2,1,1,1,3,3,1,3,4,3,4,4,3,3,3,4,4,1,1,1,1,1,1,1,2,3,1,2,2,3,2,3,2,2,2,2,1,4,2,2,4,4,4,3,2,4,3,4,5,3,3,1,1,2,1,1,5,3,1,3,4,2,3,3,2,4,4,4,4,4,3,2,3,1,3,3,2,2,4,2,1,4,4,1,5,2,2,4,4,2,3,4,4,4,3,2,4,4,2,2,4,3,1,1
"VCU",1992,2,6,2,2,2,1,0,0,2,NA,36.28,36.28,36.28,37.552200317383,74,16.66666667,5,1,2,1,NA,4,4,5,NA,2,2,3,3,1,NA,1,NA,3,1,3,1,1,NA,1,NA,NA,NA,NA,NA,NA,NA,NA,NA,NA,4,2,4,3,2,3,2,3,2,2,4,2,3,2,4,2,4,2,3,2,5,4,4,4,5,2,5,2,3,2,2,2,2,2,2,2,2,2,2,2,2,2,2,2,2,2,2,2,3,2,5,5,1,2,5,3,3,2,5,6,3,3,4,7,4,4,3,3,2,4,5,3,5,6,3,5,2,3,3,5,5,2,6,4,5,3,5,5,2,2,3,5,5,3,4,3,3,3,3,4,3,4,3,4,4,2,4,3,3,2,2,2,2,5,3,4,5,4,1,3,5,5,3,3,2,4,4,2,2,4,4,3,3,2,2,2,2,4,2,4,2,2,4,4,4,4,2,4,2,4,2,2,2,2,2,4,2,5,4,4,4,4,4,4,4,4,4,4,4,4,4,4,4,4,4,4,4,4,4
"METU",1992,2,6,2,1,2,1,NA,NA,2,NA,36.3,35.9,36.7,39.911697387695,56,4,3,2,2,1,NA,4,4,5,NA,6,4,5,5,1,NA,2,8,3,1,6,1,1,NA,1,NA,NA,NA,NA,NA,NA,NA,NA,NA,NA,2,5,5,5,5,5,1,4,4,4,5,4,5,5,4,2,5,2,3,4,4,4,3,5,5,5,4,1,3,3,1,4,2,1,1,4,4,5,4,4,3,1,2,1,4,1,5,7,7,7,7,7,7,7,7,6,4,7,4,4,4,7,7,7,4,4,1,4,7,7,7,7,7,7,4,4,4,3,6,6,6,1,4,1,2,2,3,1,1,1,3,1,7,6,5,2,7,7,7,1,1,5,1,1,4,4,1,3,4,1,4,1,3,4,5,5,8,7,5,7,6,6,1,1,3,5,1,5,1,5,5,5,5,3,5,5,5,4,5,5,2,2,5,5,5,1,1,1,3,1,1,1,3,5,3,5,5,5,5,5,1,5,5,5,3,1,1,1,2,1,1,3,2,1,3,3,3,1,5
"METU",1992,2,6,1,3,2,1,0,0,1,7,36.3,36.7,35.9,39.911697387695,74,12,3,2,2,1,NA,4,4,4,2,3,1,8,5,1,NA,2,8,1,NA,NA,2,1,NA,2," biyogen",NA,NA,NA,NA,7,NA,NA,NA,NA,3,2,3,4,3,2,1,1,2,2,4,3,3,3,4,4,2,2,2,2,3,4,3,3,5,3,3,2,2,2,3,4,2,4,3,3,2,3,2,3,4,1,1,1,2,1,2,5,5,2,5,6,7,6,5,5,4,4,1,5,2,2,5,5,1,2,1,2,2,5,1,1,2,2,2,2,1,1,2,2,2,1,3,5,4,5,3,4,3,3,3,3,3,4,4,4,3,3,3,2,2,2,2,2,2,4,2,2,2,3,1,1,2,3,2,4,5,5,2,3,1,3,2,2,4,4,1,2,2,2,2,4,4,2,4,4,3,3,2,2,4,4,2,4,4,5,4,4,4,3,3,2,2,2,1,1,4,4,5,3,1,5,4,4,4,4,2,4,4,4,4,4,1,4,5,4,2,1,4
"SMU",1992,1,7,1,2,2,1,0,0,2,NA,36.3,36.3,36.3,1.2931060791016,70,27,5,1,2,1,NA,4,4,5,NA,2,2,6,3,1,NA,2,8,1,NA,NA,1,1,NA,2,"SMU Ambassadorial Corps",NA,NA,NA,NA,4,NA,NA,NA,NA,2,4,5,4,4,4,4,4,4,4,5,4,1,2,3,3,3,2,4,2,3,3,2,2,5,1,2,2,3,3,4,4,4,2,2,4,4,4,4,4,3,2,4,3,3,2,4,5,3,3,3,2,2,2,3,2,2,3,2,2,5,5,2,4,2,3,2,5,2,2,1,1,1,2,2,2,2,2,2,4,4,1,3,2,2,4,4,2,2,4,4,4,3,4,5,5,2,2,3,2,4,2,2,2,3,4,4,2,4,2,2,2,2,3,2,3,4,4,2,2,2,2,1,2,4,4,2,5,2,4,5,4,2,1,1,2,5,3,5,2,4,4,4,5,2,5,2,5,3,2,4,4,1,4,2,2,1,4,4,2,1,4,5,2,4,2,1,4,4,5,5,2,2,4,3,5,3,2,2
"Oxford",1992,2,6,1,4,2,1,0,0,2,NA,36.3,35.9,36.7,51.75,74,2.777777778,5,1,2,1,NA,4,2,2,1,3,3,4,4,1,NA,2,6,1,NA,NA,1,1,NA,1,NA,NA,NA,NA,NA,NA,NA,NA,NA,NA,4,5,4,4,5,4,5,5,5,4,4,2,2,3,3,3,2,1,2,2,3,2,3,3,4,3,3,4,4,4,5,2,2,2,2,4,4,4,5,2,4,2,1,1,4,2,4,6,5,3,5,6,6,7,6,6,1,5,1,1,5,3,6,3,1,2,1,2,1,1,1,1,2,1,1,2,1,2,1,4,3,7,1,5,4,4,5,5,4,1,4,4,7,7,6,6,7,7,6,3,1,1,1,3,4,2,2,2,2,1,4,4,1,1,1,5,7,7,3,7,5,6,1,4,2,5,5,4,3,1,5,2,2,1,1,1,4,1,1,4,3,4,4,5,4,5,5,5,5,4,5,5,1,2,2,4,5,4,2,3,4,4,2,4,2,3,4,4,4,5,5,2,2,2,2,3,3,5,1
"Southampton",1992,2,7,1,4,2,1,6,0,2,NA,36.3,36.3,36.3,50.917098999023,69,5,5,1,1,1,NA,4,4,2,1,3,1,7,5,1,NA,2,7,3,1,5,1,1,NA,2,"Dance society",NA,NA,NA,NA,5,NA,NA,NA,NA,2,2,3,4,5,5,2,2,2,1,2,2,3,3,3,4,4,3,3,3,4,3,4,2,2,2,3,3,4,2,4,4,2,3,4,4,4,4,4,3,2,1,2,1,1,2,3,6,6,6,6,5,5,7,6,2,5,5,4,2,3,5,7,7,5,3,2,5,2,3,2,1,3,2,2,2,3,3,1,3,2,2,5,5,4,4,3,2,4,4,4,2,2,2,2,2,1,1,2,2,2,1,2,2,1,3,2,2,2,2,2,2,2,4,3,5,7,4,2,2,2,3,1,2,1,5,5,5,4,4,3,1,2,1,1,4,4,2,2,5,2,2,2,4,4,5,4,3,2,4,4,1,4,1,2,2,2,3,2,2,2,2,2,4,2,4,1,4,4,4,4,4,2,2,4,4,4,2,2
"Oslo",1992,1,7,1,3,2,1,2,1,2,NA,36.3,36.1,36.5,59.916702270508,87,0,4,1,2,1,NA,4,4,4,1,6,3,8,8,1,NA,2,8,3,1,7,1,1,NA,1,NA,NA,NA,NA,NA,NA,NA,NA,NA,NA,4,2,2,4,4,4,2,3,3,3,4,2,4,3,3,4,3,3,2,2,4,2,3,3,5,3,3,3,4,3,4,1,5,4,2,5,4,4,4,4,3,2,3,3,4,2,4,2,2,2,3,3,3,2,5,2,3,2,2,4,3,3,5,6,2,6,2,3,2,3,2,2,2,2,2,2,3,2,1,1,2,2,2,4,4,5,5,4,3,3,4,4,5,6,5,6,5,4,5,2,2,2,1,1,2,2,1,1,1,3,3,3,2,2,1,4,6,5,2,2,5,4,3,4,5,5,2,1,2,2,2,1,4,2,5,4,2,4,3,4,4,3,3,3,4,4,4,4,4,4,4,4,2,2,3,1,2,2,3,3,5,3,2,4,3,4,2,4,3,4,4,4,2,5,4,4,3,3,3
"SMU",1992,1,5,2,2,2,1,9,0,2,NA,36.3,36.3,36.3,1.2931060791016,79,26,5,1,1,1,NA,4,3,5,NA,3,1,6,5,2,2,2,2,1,NA,NA,1,1,NA,1,NA,NA,NA,NA,NA,NA,NA,NA,NA,NA,3,3,2,2,3,3,2,3,2,4,3,4,2,4,5,5,4,2,2,2,3,3,2,4,5,3,5,4,3,4,4,3,4,4,4,4,4,4,4,4,4,4,4,4,4,4,4,5,5,5,5,5,5,5,5,3,5,3,5,5,5,5,5,5,5,5,3,5,3,5,5,5,3,3,3,3,3,3,5,3,3,3,3,4,4,4,4,4,4,4,4,4,7,4,4,4,4,4,4,4,4,4,2,4,4,4,3,4,4,4,2,4,2,4,2,4,2,4,5,6,7,7,4,4,4,4,4,4,4,4,4,3,3,3,3,3,3,3,3,3,4,4,4,4,4,4,4,4,4,4,4,4,4,4,3,3,3,3,3,3,3,3,3,3,3,3,3,3,3,3,3,3,3,3,3,3,3,3,3
"Bamberg",1992,1,6,1,3,2,1,2,0,2,NA,36.315,36.43,36.2,48.149993896484,95,-1,1,1,1,1,NA,4,4,4,4,5,4,4,3,1,NA,2,5,1,NA,NA,2,1,NA,1,NA,NA,NA,NA,NA,NA,NA,NA,NA,NA,3,4,2,5,5,4,3,1,2,2,2,2,4,2,4,3,3,2,2,2,2,3,2,2,3,3,1,2,4,2,4,1,1,4,1,4,3,2,2,2,2,1,1,1,1,1,1,2,1,1,1,1,2,1,2,1,1,6,1,1,1,1,1,3,1,1,1,2,1,2,2,1,1,2,1,1,1,1,1,2,3,1,1,5,5,5,5,5,4,5,5,5,3,3,2,2,3,2,2,1,1,2,2,4,2,2,1,1,2,1,3,2,1,2,2,4,6,5,4,3,2,4,4,2,3,4,1,2,2,4,2,5,4,4,3,5,5,2,4,3,1,4,2,5,1,5,3,5,5,2,4,3,1,1,2,1,5,4,4,2,2,3,4,2,2,4,3,2,1,2,5,3,2,3,5,3,2,1,3
"Bamberg",1992,2,7,1,4,2,1,0,0,2,NA,36.345,36.33,36.36,49.904495239258,54,3,1,1,2,1,NA,4,4,5,NA,2,2,6,4,2,1,2,4,1,NA,NA,1,2,2,2,"Kindertanz","Schwimmen",NA,NA,NA,2,1,NA,NA,NA,2,2,2,3,2,2,2,2,2,2,3,2,2,4,4,4,3,3,2,3,4,4,4,4,4,2,4,2,2,1,4,2,1,2,4,3,4,1,3,4,3,1,2,1,1,1,4,2,2,1,2,2,2,1,2,1,1,7,1,2,3,2,1,5,1,2,1,4,2,2,2,1,2,2,2,2,2,4,2,4,4,1,1,3,4,4,4,3,4,3,4,4,2,4,4,4,5,5,5,4,4,2,4,3,3,2,4,4,3,2,4,4,2,4,3,3,4,4,3,2,3,3,3,2,4,4,3,2,2,1,3,4,4,3,4,4,3,4,2,4,2,4,4,4,3,5,3,4,3,3,5,3,1,3,1,2,4,3,2,4,3,3,2,4,3,4,3,4,4,3,3,4,3,5,5,4,3,4,5
"METU",1992,1,5,2,4,2,1,1,0,2,NA,36.35,36.2,36.5,39.911697387695,60,9,3,2,3,1,NA,4,4,5,NA,4,4,5,5,1,NA,2,3,1,NA,NA,1,1,NA,1,NA,NA,NA,NA,NA,NA,NA,NA,NA,NA,4,2,3,2,1,3,3,4,2,1,4,2,2,3,3,3,3,2,3,3,3,3,3,3,3,3,3,2,1,2,2,4,2,4,2,2,3,4,3,3,4,3,3,3,4,4,3,7,5,5,4,6,4,5,6,2,5,6,3,4,5,5,6,6,5,6,2,5,3,2,2,5,2,5,1,2,2,3,5,4,4,3,2,5,5,5,5,5,4,5,3,4,3,3,3,2,3,2,3,4,4,4,2,4,4,4,4,3,4,4,2,3,2,3,1,4,6,2,4,4,4,2,4,4,4,4,3,3,5,5,2,4,3,4,1,5,5,3,2,3,4,4,4,2,3,4,4,3,4,4,4,4,3,3,3,3,4,4,4,4,3,4,3,3,4,4,3,3,4,3,4,3,2,4,4,4,4,4,4
"SMU",1992,1,4,1,4,2,1,3,0,2,NA,36.35,36.4,36.3,1.2931060791016,75,26,5,1,2,1,NA,4,4,5,NA,1,NA,8,3,2,1,2,8,3,1,4,1,1,NA,1,NA,NA,NA,NA,NA,NA,NA,NA,NA,NA,3,2,4,3,1,3,2,3,2,3,4,3,3,3,2,4,3,3,2,3,3,2,2,3,3,3,3,3,5,3,3,4,3,5,4,2,4,4,4,4,4,4,4,3,3,4,4,7,3,2,5,5,5,4,5,4,6,3,2,5,4,4,5,4,4,4,2,2,2,3,2,2,2,1,3,2,2,1,4,3,3,1,5,4,4,4,4,5,5,3,5,4,6,6,5,5,5,5,5,3,3,3,2,3,3,3,2,3,3,2,2,4,3,3,2,3,6,6,3,2,2,5,3,3,3,3,3,3,3,3,3,4,3,1,4,4,4,4,2,2,2,2,4,3,4,4,4,4,3,3,3,3,3,3,3,3,3,3,3,3,3,3,3,3,3,3,1,3,4,4,3,4,2,3,3,3,3,3,4
"Oslo",1992,1,3,2,3,2,1,3,0,2,NA,36.35,36.2,36.5,59.916702270508,87,1,4,1,2,1,NA,4,4,5,NA,8,3,6,3,1,NA,2,8,3,8,4,2,1,NA,1,NA,NA,NA,NA,NA,NA,NA,NA,NA,NA,1,2,2,4,2,4,1,1,1,2,2,2,3,3,3,3,2,2,2,3,4,2,3,2,4,4,3,4,5,2,4,4,4,3,4,5,4,5,4,4,4,3,4,5,3,4,5,5,5,4,5,5,3,4,5,3,3,4,4,3,4,5,6,5,3,4,3,4,4,4,5,5,3,3,3,2,3,2,3,3,3,2,2,5,4,4,4,4,4,3,4,4,5,6,5,5,5,5,4,3,2,2,2,4,2,2,2,2,2,2,2,4,2,2,3,1,2,2,1,1,1,1,1,2,2,5,5,4,3,2,3,2,2,3,3,3,5,2,4,2,3,3,4,2,4,4,4,3,3,3,3,4,3,3,3,2,2,3,2,2,4,3,3,2,3,3,2,2,3,4,4,4,2,4,3,3,3,2,4
"Oxford",1992,2,6,2,3,2,1,0,0,2,NA,36.35,36,36.7,51.75,74,2.777777778,5,1,2,1,NA,4,4,5,NA,3,3,6,6,1,NA,2,8,1,NA,NA,3,1,NA,2,"OGM",NA,NA,NA,NA,5,NA,NA,NA,NA,2,2,1,2,2,2,1,2,2,2,3,2,2,4,3,5,3,4,3,4,5,3,4,4,4,4,4,4,4,4,4,4,4,4,5,4,4,4,4,3,4,3,2,4,3,2,4,5,5,3,5,5,5,3,6,3,3,5,5,6,3,5,3,5,3,5,5,5,5,5,5,5,5,5,3,3,3,3,5,5,5,3,4,5,5,5,5,5,5,5,5,5,4,5,5,5,5,5,5,4,4,2,4,4,2,2,4,2,3,2,2,2,2,4,4,3,3,1,1,1,1,1,2,2,4,4,4,2,2,2,4,4,4,2,4,4,4,2,5,2,2,2,4,4,2,3,4,2,4,2,2,2,4,4,2,2,2,4,4,2,4,2,4,4,2,2,4,2,4,1,2,2,4,4,2,4,4,2,2
"VCU",1992,2,7,1,3,2,1,0,2,2,NA,36.38888889,36.38888889,36.38888889,38.43359375,88,5.555555556,5,1,2,1,NA,4,4,2,1,2,2,4,4,1,NA,2,8,3,2,7,3,1,NA,1,NA,NA,NA,NA,NA,NA,NA,NA,NA,NA,3,2,4,4,4,4,1,3,5,4,5,2,5,2,4,4,2,2,2,2,3,2,2,2,5,2,2,2,4,2,4,1,1,2,1,4,2,2,2,2,1,1,1,1,2,1,2,2,2,1,3,2,3,5,2,2,1,3,1,2,3,5,6,5,1,2,2,5,1,1,1,2,1,3,2,1,2,1,3,2,3,2,2,4,4,4,4,5,5,5,3,3,3,5,5,3,4,4,3,4,4,1,2,2,4,3,1,1,2,1,2,2,2,1,2,3,3,5,2,3,3,4,5,2,2,5,4,2,2,3,4,2,1,1,1,2,5,1,5,3,2,4,4,4,3,5,5,5,5,1,5,4,1,1,4,3,4,4,2,5,3,2,4,4,1,4,1,2,5,4,3,2,2,5,4,3,4,2,4
"Bamberg",1992,2,7,1,4,2,1,1,0,2,NA,36.4,36.5,36.3,49.383407592773,62,-1,1,1,2,1,NA,4,2,5,NA,8,1,8,8,2,1,2,8,3,1,4,1,2,5,1,NA,NA,NA,NA,NA,NA,NA,NA,NA,NA,3,4,4,5,3,3,4,4,4,4,5,3,4,4,3,3,2,2,3,2,4,2,2,4,4,2,3,3,2,1,3,3,1,2,3,2,3,3,3,2,2,1,2,2,1,1,3,4,4,4,5,6,6,3,5,4,2,4,3,2,3,3,3,6,2,5,3,6,3,5,3,2,3,3,3,3,3,3,5,6,6,1,2,4,4,4,5,4,2,2,4,3,4,3,3,3,3,3,3,2,4,3,2,2,2,2,3,4,2,2,2,2,2,2,2,5,8,6,5,5,5,6,3,4,3,4,3,2,2,3,4,4,3,2,4,4,2,2,2,2,4,4,2,3,5,5,4,4,3,3,3,3,2,2,2,2,2,4,3,3,2,2,2,4,2,3,4,4,4,5,4,4,3,4,4,4,3,2,5
"Southampton",1992,1,7,1,4,2,1,5,0,2,NA,36.4,35.9,36.9,51.5,83,5,5,1,2,1,NA,4,4,4,4,8,5,8,8,1,NA,2,8,3,1,8,1,1,NA,2,"Football team",NA,NA,NA,NA,6,NA,NA,NA,NA,3,4,4,3,4,4,3,3,2,3,4,4,4,2,3,3,4,2,2,3,3,2,2,3,4,2,2,2,4,2,4,2,2,2,2,3,3,3,4,3,2,2,2,2,2,1,3,2,2,2,1,2,2,2,2,2,2,2,2,2,2,2,2,3,1,4,2,5,2,4,2,2,2,2,3,3,3,3,2,3,4,2,2,3,4,3,4,4,3,2,3,3,3,3,3,2,3,3,2,2,2,1,2,2,2,2,2,4,1,2,2,2,2,3,3,4,5,3,2,2,2,3,3,5,5,2,1,2,4,4,1,5,3,3,4,5,4,4,2,2,3,2,2,2,3,4,3,3,3,3,4,3,2,2,2,1,4,4,4,2,2,3,3,3,2,2,3,4,2,2,2,3,3,4,2,3,2,4,2
"SMU",1992,1,7,1,3,2,1,1,0,2,NA,36.4,36.4,36.4,1.2931060791016,71,26,5,1,2,1,NA,4,1,2,1,3,3,8,8,1,NA,2,8,1,NA,NA,1,1,NA,2,"Peer Helpers",NA,NA,NA,NA,20,NA,NA,NA,NA,4,3,3,3,2,4,3,2,4,3,4,3,4,3,3,3,2,2,3,3,3,2,2,3,3,2,3,3,4,2,4,4,1,1,2,4,2,2,2,4,2,2,2,2,4,2,2,2,2,2,2,4,2,2,2,2,2,2,2,2,4,2,3,2,1,1,2,2,2,2,2,3,2,2,2,2,2,2,3,2,2,2,2,4,4,4,4,4,4,4,3,3,2,2,2,4,2,2,2,2,2,2,2,2,2,2,2,2,2,2,2,3,2,3,2,5,4,2,2,2,2,4,2,4,4,2,2,2,2,3,3,5,5,2,4,4,4,4,2,2,2,2,5,5,3,3,2,4,3,2,4,3,2,3,3,2,2,4,3,3,2,4,4,4,2,3,3,3,4,3,3,3,2,4,2,4,3,2,3
"VCU",1992,2,7,1,3,2,1,12,2,2,NA,36.41666667,36.33333333,36.5,44.878402709961,93,13.88888889,5,1,2,1,NA,4,2,5,NA,5,2,3,3,1,NA,2,3,3,1,2,1,1,NA,1,NA,NA,NA,NA,NA,NA,NA,NA,NA,NA,1,1,2,2,2,2,1,1,2,1,2,2,3,2,4,5,4,4,4,3,5,4,3,4,5,4,4,2,4,3,4,4,2,2,4,3,4,4,4,4,2,2,2,2,2,3,4,6,6,6,6,5,7,6,6,5,3,2,3,5,6,5,3,6,5,6,5,6,5,5,3,3,5,5,3,3,3,2,3,3,5,2,2,4,2,2,2,2,2,2,2,2,7,6,5,5,6,5,5,3,5,3,4,4,3,4,5,4,3,4,2,4,2,4,2,2,2,1,2,2,2,2,1,2,3,4,4,4,2,2,4,2,2,1,1,2,5,1,5,4,4,4,4,2,3,4,4,4,2,4,3,2,2,4,2,2,2,2,2,2,2,4,4,2,4,4,2,2,5,4,4,4,2,4,4,3,4,2,4
"Zurich",1992,1,3,2,4,2,1,0,0,2,NA,36.44444444,36.5,36.38888889,47.560302734375,91,3,1,1,2,1,NA,4,4,5,NA,2,1,8,8,1,NA,2,8,1,NA,NA,4,1,NA,1,NA,NA,NA,NA,NA,NA,NA,NA,NA,NA,3,3,4,3,3,4,2,2,3,3,2,2,3,3,2,3,2,2,2,3,3,3,3,3,4,3,2,3,3,3,4,2,2,2,4,2,2,2,2,2,2,3,2,2,3,2,2,2,2,2,2,5,1,1,3,7,2,7,4,3,5,1,2,2,1,3,5,6,4,5,5,4,4,5,6,4,6,6,4,6,6,3,3,4,4,4,4,3,3,2,3,3,2,4,3,3,2,2,2,4,4,3,4,2,2,4,2,3,4,1,1,2,3,2,2,3,3,2,3,1,2,2,4,5,3,3,3,2,2,4,2,4,4,3,4,4,4,4,2,2,3,3,4,3,4,4,3,3,2,2,3,3,2,2,2,3,4,3,3,3,3,4,2,3,3,3,3,3,3,4,3,2,3,2,3,2,2,2,2
"SMU",1992,1,6,2,4,2,2,1,0,2,NA,36.45,36.3,36.6,1.2931060791016,71,26,5,1,2,1,NA,4,4,5,NA,3,3,4,3,1,NA,2,8,2,1,4,1,2,5,1,NA,NA,NA,NA,NA,NA,NA,NA,NA,NA,3,2,4,4,2,4,2,2,4,4,5,2,4,3,2,3,1,2,1,1,3,2,2,2,5,1,3,2,4,1,4,1,1,1,2,4,4,2,4,4,3,2,3,3,3,3,2,6,6,6,6,6,5,3,5,6,4,2,4,2,5,6,6,2,3,5,4,4,3,5,3,3,3,6,3,4,5,4,5,3,3,3,5,5,4,4,4,4,4,4,4,4,5,2,6,5,5,5,4,2,2,1,3,1,2,3,2,3,1,2,1,2,2,5,1,3,3,2,2,2,2,2,4,2,5,3,2,2,4,5,3,4,2,4,4,5,2,4,2,5,4,3,4,3,4,4,2,4,3,3,3,3,2,2,3,3,3,5,2,4,2,4,3,4,2,5,4,3,4,4,4,3,4,4,3,2,4,3,4
"Tsinghua",1992,1,6,2,3,2,1,1,3,1,0.5,36.45,36.4,36.5,30.580093383789,86,19,7,3,2,1,0,4,4,5,0,5,2,4,4,1,1,2,4,1,1,1,6,2,1,2,"¸ßÖÐÍ¬Ñ§","´óÑ§Í¬Ñ§","Ç×ÆÝ",NA,NA,2,5,3,NA,NA,4,4,3,4,4,4,2,2,2,4,4,4,2,3,2,2,2,2,2,4,2,2,4,2,4,3,2,2,3,2,4,3,2,2,3,2,4,2,4,4,4,2,2,2,2,2,4,4,5,3,5,6,2,5,3,5,4,3,5,5,3,2,2,6,2,2,2,5,2,2,5,4,3,2,2,3,5,3,5,3,5,3,3,4,4,3,4,4,4,4,3,4,5,2,5,6,6,6,5,2,2,2,3,2,2,3,2,4,3,3,2,2,2,2,2,4,3,4,1,2,2,3,2,5,4,4,1,2,4,5,2,5,3,2,4,5,3,4,3,4,4,4,2,4,4,2,2,4,2,3,3,2,2,3,2,4,4,4,3,2,2,2,2,4,4,2,4,4,2,2,2,3,2,2,2,2,3,2,2
"Poland",1992,2,7,1,3,2,1,4,1,2,NA,36.45,36.4,36.5,52.25,55,-3,9,1,1,1,NA,4,4,4,2,5,5,2,2,1,NA,2,6,6,1,8,2,1,NA,1,NA,NA,NA,NA,NA,NA,NA,NA,NA,NA,4,5,3,4,4,3,2,3,3,2,4,2,2,3,4,4,4,3,4,4,3,3,3,4,4,5,4,4,4,4,3,2,2,2,1,2,4,4,4,4,4,2,1,3,4,2,4,3,1,1,1,2,4,3,1,2,1,5,1,4,4,1,2,1,1,1,1,3,1,1,1,1,2,2,2,2,3,1,1,6,3,1,1,5,5,5,5,5,2,2,4,3,5,6,6,6,6,6,6,2,4,2,4,2,3,4,2,1,3,4,2,4,1,4,3,4,6,6,4,4,3,4,1,2,1,5,4,4,2,2,4,2,1,2,1,2,4,1,3,5,2,4,4,5,4,2,2,5,3,2,5,4,1,1,2,2,2,2,2,2,2,2,2,4,2,1,1,1,5,5,3,2,2,5,4,2,3,4,1
"VCU",1992,2,7,2,2,2,1,2.32,0,2,NA,36.47222222,36.61111111,36.33333333,37.553802490234,81,14.44444444,5,1,2,1,NA,4,4,5,NA,7,4,6,4,2,1,2,5,3,1,5,1,1,NA,1,NA,NA,NA,NA,NA,NA,NA,NA,NA,NA,3,3,3,5,5,4,1,4,2,1,3,1,5,4,4,5,2,3,2,3,2,2,3,4,5,3,3,2,5,3,4,4,3,4,5,3,4,3,4,5,3,2,4,2,5,1,4,4,4,4,4,4,6,4,4,4,4,6,4,4,4,4,4,7,4,4,4,4,4,5,4,5,4,4,2,4,4,4,6,4,4,4,4,5,5,3,4,4,4,3,4,3,2,5,6,5,4,4,5,2,1,2,1,1,2,3,1,2,3,1,1,2,3,2,2,4,2,5,1,2,4,2,1,5,4,4,2,4,3,4,5,4,2,1,4,5,5,4,5,5,2,3,2,3,4,4,5,3,5,2,3,5,2,1,2,3,3,4,4,2,1,4,3,4,3,2,2,2,3,3,4,3,4,4,4,3,2,2,2
"VCU",1992,2,7,1,4,2,1,6,0,2,NA,36.5,36.5,36.5,37.552200317383,94,13.33333333,5,1,2,1,NA,4,4,5,NA,2,1,8,8,1,NA,2,4,3,1,2,2,1,NA,2,"School club (t1d rams)",NA,NA,NA,NA,1,NA,NA,NA,NA,2,1,2,5,5,3,1,1,1,3,3,4,5,1,3,3,2,1,2,2,2,3,3,2,5,3,2,2,5,2,5,1,1,4,5,4,1,4,1,2,1,2,3,1,4,1,2,1,1,1,1,5,1,1,5,1,1,2,1,1,1,1,7,1,1,2,2,2,2,2,2,4,1,1,5,4,3,2,5,3,2,1,4,4,3,3,4,4,3,4,3,3,3,5,4,2,2,2,2,1,1,1,1,1,1,1,1,1,1,1,2,2,1,3,2,3,2,3,2,3,2,2,1,2,3,4,1,2,3,2,5,5,1,4,3,2,2,1,4,3,3,3,3,4,5,4,3,3,2,5,4,2,1,3,3,4,4,4,4,3,2,4,2,4,2,3,2,2,4,3,3,3,1,3,4,3,3,3,4
"Poland",1992,2,5,1,4,2,1,5,3,2,NA,36.5,36.5,36.5,50.083297729492,52,7,9,1,2,1,NA,4,4,4,2,4,2,5,5,2,1,2,8,2,1,1,1,1,NA,1,NA,NA,NA,NA,NA,NA,NA,NA,NA,NA,3,4,3,4,2,4,1,2,2,5,4,2,4,4,4,4,4,3,4,3,2,2,3,3,3,3,3,2,4,2,4,4,2,5,2,5,5,4,4,4,3,1,2,1,1,2,4,2,2,1,3,4,6,1,2,2,3,7,2,3,1,2,5,4,1,4,5,4,2,5,4,2,3,2,2,1,7,5,4,6,2,1,2,4,5,5,5,4,4,2,4,4,7,4,3,3,4,5,4,3,3,4,4,2,1,4,2,1,2,1,3,2,2,3,2,4,4,4,2,1,3,3,4,3,4,4,2,1,1,3,2,4,4,4,4,4,2,2,1,4,3,3,4,5,3,4,5,4,3,3,3,3,2,2,1,1,2,4,2,1,2,2,2,4,4,3,4,3,4,3,5,4,3,4,4,4,2,2,3
"Tsinghua",1992,1,5,1,4,2,1,6,0,2,0,36.5,36.3,36.7,39.928894042969,51,7,7,3,2,1,0,4,4,5,0,4,1,8,4,1,1,2,4,1,1,1,1,2,1,2,NA,NA,NA,NA,NA,NA,NA,NA,NA,NA,3,2,4,4,3,5,1,4,1,3,3,2,5,3,3,4,2,2,2,2,2,2,2,3,5,2,3,4,4,2,4,4,4,4,4,5,2,4,2,5,2,3,5,4,4,4,2,6,3,2,2,6,3,6,4,6,2,6,2,2,1,6,6,5,2,2,5,1,1,1,1,2,1,1,1,1,2,1,1,1,1,2,3,4,4,4,4,4,3,2,3,4,3,2,4,5,5,4,4,1,2,1,3,1,1,2,2,1,1,4,4,4,3,5,2,2,2,2,2,2,1,1,2,4,5,5,3,1,1,1,1,3,1,1,4,2,2,2,1,3,1,1,4,5,3,2,1,4,3,2,5,4,2,2,2,5,4,5,5,5,3,4,5,2,4,1,1,2,1,1,1,5,1,5,1,5,4,2,1
"SMU",1992,1,6,1,4,2,1,0,0,2,NA,36.5,36.6,36.4,1.2931060791016,79,26,5,1,2,1,NA,4,4,5,NA,2,2,4,1,1,NA,2,8,1,NA,NA,1,2,4,2,"Peer Helpers","Recreation Gaming Club",NA,NA,NA,6,3,NA,NA,NA,2,2,1,1,2,2,1,1,2,2,4,2,5,4,5,3,2,1,2,2,4,2,1,5,5,1,5,4,4,5,4,4,5,4,4,5,2,5,5,5,4,5,5,5,5,2,5,6,7,7,7,7,7,5,6,7,1,1,7,6,7,7,6,7,4,7,6,7,2,7,6,6,2,2,6,1,6,2,6,2,6,1,5,2,1,4,1,1,1,2,1,1,6,7,7,7,6,5,5,2,5,1,4,2,4,2,4,4,2,4,1,4,1,3,1,1,2,2,1,1,1,1,2,2,5,1,1,2,4,4,2,5,5,5,4,4,2,5,3,2,4,5,1,4,5,5,5,5,1,5,5,5,2,4,2,2,2,4,4,5,5,5,5,2,4,1,1,2,5,2,5,5,5,5,4,4,4,5,4
"Kassel",1992,2,3,2,3,2,1,0,0,2,NA,36.55,36.5,36.6,50.149993896484,99,-2,1,1,3,1,NA,4,4,5,NA,3,2,6,4,1,NA,1,NA,3,1,8,2,1,NA,1,NA,NA,NA,NA,NA,NA,NA,NA,NA,NA,2,3,5,4,3,3,3,2,4,5,4,2,2,3,3,2,2,3,2,3,3,2,2,3,3,2,3,4,3,1,4,1,1,4,3,4,4,4,4,3,4,1,1,1,3,1,4,4,4,3,3,5,5,4,3,2,1,4,4,3,2,2,4,3,2,2,1,5,1,5,3,6,1,1,1,2,2,2,1,6,5,1,1,5,5,5,5,5,5,4,5,5,4,5,5,4,6,4,5,2,1,1,2,2,2,2,1,2,2,1,4,4,2,3,2,4,4,6,4,4,4,3,2,2,1,4,4,3,3,4,3,1,2,2,3,2,2,2,4,2,3,4,2,4,4,4,3,3,3,3,3,3,2,2,2,1,1,4,4,2,2,2,2,3,4,3,2,3,4,4,4,3,2,4,3,2,4,2,2
"METU",1992,2,7,1,2,2,1,0,0,2,NA,36.55,36.4,36.7,39.911697387695,66,5,3,2,1,1,NA,4,4,4,4,2,2,1,2,1,NA,2,5,1,NA,NA,1,2,4,2,"odt¨¹ tenis toplulu?u","odt¨¹ tiyatro",NA,NA,NA,2,10,NA,NA,NA,3,5,5,5,3,5,5,4,2,4,5,4,5,2,3,5,1,3,1,1,3,4,2,2,3,1,2,4,5,4,5,5,3,4,1,5,4,4,4,4,4,4,4,4,4,4,4,7,1,1,3,4,7,2,1,4,1,4,2,1,7,1,1,1,1,7,1,1,5,2,1,2,6,7,1,1,1,1,4,5,7,1,1,5,4,4,5,5,5,5,5,4,5,4,4,4,7,6,6,1,1,1,1,3,1,3,1,1,1,2,2,1,2,2,2,5,6,5,2,6,2,2,1,1,1,5,4,5,3,5,1,3,4,1,1,2,2,1,5,4,3,4,4,1,5,5,5,5,5,5,5,5,1,1,1,1,3,4,5,2,2,3,3,2,2,5,1,5,1,5,5,5,1,4,4,3,2,1,5
"SMU",1992,2,4,1,4,2,1,0,0,1,3,36.55555556,36.38888889,36.72222222,1.2931060791016,75,26,5,1,2,1,NA,4,4,5,NA,3,1,7,4,1,NA,2,8,1,NA,NA,2,1,NA,1,NA,NA,NA,NA,NA,NA,NA,NA,NA,NA,2,2,2,3,1,2,2,1,2,3,3,2,4,3,3,4,3,2,1,3,3,3,3,3,4,3,3,3,5,1,4,2,5,2,4,3,2,2,2,2,2,2,2,2,2,2,2,2,2,2,2,4,2,2,2,2,2,1,2,2,2,4,2,2,4,5,4,6,2,5,6,6,2,2,6,3,6,2,2,6,6,5,3,5,4,5,5,5,5,4,5,5,3,5,5,5,6,4,4,2,2,1,2,2,2,2,2,2,2,1,2,1,2,3,1,4,5,7,5,5,2,5,2,4,4,2,1,4,2,2,4,5,4,2,4,5,5,4,1,2,2,2,5,4,3,3,3,4,3,3,4,3,3,4,4,2,1,4,2,3,2,4,2,5,2,2,2,3,4,3,2,3,3,5,4,3,3,1,2
"Bamberg",1992,1,6,1,2,2,1,0,0,2,NA,36.59,36.54,36.64,49.904495239258,54,3,1,1,2,1,NA,4,4,4,1,3,3,8,6,2,1,2,6,3,1,6,4,1,NA,1,NA,NA,NA,NA,NA,NA,NA,NA,NA,NA,4,3,5,5,3,2,3,2,5,2,3,2,5,2,2,4,3,2,3,2,4,3,3,5,5,4,3,1,1,1,4,1,1,1,1,2,4,3,2,4,2,1,1,1,1,1,2,2,2,2,1,4,1,2,6,2,2,6,2,4,2,6,1,2,2,5,2,4,2,5,5,2,2,2,2,4,2,2,2,7,6,3,2,5,4,5,5,5,4,2,4,4,3,6,6,6,4,4,4,4,4,3,4,2,4,3,4,3,2,1,1,2,2,4,1,4,3,4,2,2,2,2,3,2,2,4,4,2,3,2,2,2,1,1,1,3,4,2,4,1,3,4,2,4,4,4,4,3,3,2,4,3,2,2,2,1,1,4,2,4,1,2,3,4,3,4,2,3,2,5,3,4,3,5,3,4,3,2,3
"Serbia",1992,1,1,2,3,2,1,0,0,1,20,36.6,36.6,36.6,44.818603515625,56,6,6,1,2,1,NA,2,2,5,NA,2,1,5,5,1,NA,2,8,1,NA,NA,1,1,NA,1,NA,NA,NA,NA,NA,NA,NA,NA,NA,NA,3,3,4,3,4,4,2,1,4,2,2,3,4,4,3,3,3,2,2,3,3,2,3,3,3,3,2,3,3,1,2,2,1,2,1,3,1,3,1,1,1,1,1,1,1,1,1,4,3,3,5,4,3,2,4,4,2,5,4,5,5,2,4,5,3,2,3,8,NA,3,5,2,3,NA,3,NA,3,3,3,6,6,NA,4,4,3,4,5,4,4,2,3,4,3,4,3,5,5,4,3,4,3,1,4,4,1,4,4,3,2,1,2,2,2,3,2,3,2,1,1,3,1,1,1,2,3,3,1,4,1,2,4,4,2,4,2,2,4,3,4,4,4,4,3,2,4,3,2,3,3,2,2,4,2,2,2,4,1,4,2,4,3,2,3,4,4,2,2,4,3,2,2,4,3,4,2,2,4,3,1
"Kassel",1992,2,7,1,4,2,1,27,0,2,NA,36.6,36.6,36.6,50.11669921875,99,-2,1,1,2,1,NA,4,4,4,1,8,3,5,5,1,NA,2,6,1,NA,NA,1,1,NA,1,NA,NA,NA,NA,NA,NA,NA,NA,NA,NA,4,2,3,2,3,4,2,2,2,4,3,4,2,3,3,4,2,2,3,2,3,3,3,3,4,2,3,3,4,1,4,1,1,2,2,4,2,4,2,4,2,1,2,1,2,2,2,4,2,2,5,4,5,2,2,3,2,3,3,5,5,2,5,5,1,2,2,4,2,2,1,2,2,2,1,1,1,1,1,6,6,1,2,5,4,4,5,4,3,4,5,5,7,5,5,5,4,4,5,2,2,1,2,2,2,2,2,2,2,2,2,2,2,2,3,4,6,6,4,6,5,6,2,2,2,4,3,4,2,3,4,4,3,2,2,4,3,2,4,2,2,3,4,4,3,5,2,4,3,2,3,3,1,3,2,2,3,3,1,2,2,2,3,4,4,2,2,3,4,3,3,2,4,2,4,3,3,4,1
"Oslo",1992,1,6,2,3,2,1,0,0,2,NA,36.6,36.5,36.7,NA,87,-1,4,1,2,1,NA,4,1,5,NA,2,1,3,3,1,NA,1,NA,1,NA,NA,2,1,NA,1,NA,NA,NA,NA,NA,NA,NA,NA,NA,NA,3,2,2,3,3,3,1,2,2,1,3,2,4,5,4,4,3,3,3,3,4,3,3,3,5,3,4,2,3,1,3,3,2,2,3,4,4,4,4,4,4,4,2,1,2,2,4,5,5,5,5,5,6,5,5,5,5,5,4,4,4,6,5,6,2,5,3,5,5,5,3,4,3,4,4,4,5,2,4,5,4,3,4,3,4,4,4,4,3,4,3,2,5,4,5,4,3,3,3,4,4,4,3,3,4,5,4,4,4,4,3,3,2,3,2,4,5,5,1,2,3,3,2,4,3,3,4,4,2,3,4,5,3,1,2,4,4,3,3,3,2,4,3,4,3,5,4,4,4,3,3,4,3,3,3,3,2,2,3,2,2,3,4,2,3,3,1,3,2,4,4,5,3,3,4,4,3,2,3
"Poland",1992,2,7,1,4,2,1,40,5,2,NA,36.615,36.44,36.79,52.416702270508,86,3,9,1,1,2,2,4,4,4,4,6,6,2,2,2,1,2,8,2,1,1,2,1,NA,1,NA,NA,NA,NA,NA,NA,NA,NA,NA,NA,4,4,3,4,4,4,2,3,2,4,3,4,3,2,2,3,4,4,4,3,3,4,4,2,5,5,1,5,4,2,4,3,2,3,2,4,4,2,3,2,3,2,2,2,2,3,4,1,1,1,5,4,1,1,2,1,1,7,2,1,1,1,6,1,1,2,1,3,1,1,1,1,2,1,2,2,2,3,1,5,4,2,2,5,5,5,5,5,5,5,5,5,2,2,2,2,1,2,2,1,2,1,3,2,2,4,2,1,1,2,3,1,1,3,2,5,6,4,2,2,2,2,2,2,2,5,4,2,1,2,4,1,1,2,2,4,2,3,4,1,3,3,1,2,3,5,3,5,5,2,5,4,1,1,1,1,4,4,2,1,2,2,2,2,2,2,2,3,4,4,4,2,2,2,2,1,2,2,2
"Serbia",1992,2,5,2,2,2,1,2,0,2,NA,36.65,36.5,36.8,44.818603515625,71,8,6,1,2,1,NA,4,4,5,NA,3,2,6,4,1,NA,2,8,1,NA,NA,1,1,NA,2,"ZKK Bor",NA,NA,NA,NA,5,NA,NA,NA,NA,4,3,3,3,4,3,2,3,5,4,2,2,3,3,2,3,3,3,3,3,3,4,4,2,4,3,3,1,1,1,2,2,1,1,1,1,1,1,3,2,1,1,2,1,1,2,2,2,3,3,3,4,1,2,4,4,4,3,3,4,3,3,3,4,3,5,4,8,4,5,4,3,4,4,6,3,5,5,5,5,6,4,4,4,4,4,3,4,4,3,4,2,4,4,3,3,5,4,4,2,4,1,4,1,1,2,4,3,2,1,2,4,3,4,2,3,2,3,2,2,2,2,4,2,3,5,4,1,1,2,3,3,3,2,2,2,3,3,5,2,3,3,4,3,3,3,3,2,1,3,2,2,3,2,3,2,4,3,2,2,2,2,2,2,2,1,3,5,3,1,1,5,5,4,2,5,3,4,4
"Kassel",1992,1,7,2,2,2,1,20,0,2,NA,36.65,36.8,36.5,51.305603027344,82,1,1,1,2,1,NA,4,1,5,NA,2,1,6,1,1,NA,2,3,1,NA,NA,1,1,NA,1,NA,NA,NA,NA,NA,NA,NA,NA,NA,NA,3,3,3,4,3,4,5,2,2,3,3,4,3,3,3,3,2,2,2,2,3,2,3,3,3,2,3,2,2,1,2,1,1,1,2,2,1,1,1,1,1,1,1,1,1,1,1,4,4,4,4,4,4,4,4,4,4,4,4,4,4,4,4,4,4,4,4,4,4,4,4,4,4,4,4,4,4,4,4,4,4,4,4,3,3,4,4,4,4,2,3,2,5,1,2,1,3,3,4,2,2,2,4,2,2,2,2,3,2,2,4,4,2,4,4,5,8,5,6,2,6,6,3,2,2,5,5,2,4,4,2,2,2,3,2,3,4,1,2,3,2,4,4,4,4,5,4,3,2,4,3,2,2,2,2,2,2,4,2,3,3,2,2,4,2,2,3,4,4,4,4,4,2,3,3,4,3,4,4
"Tsinghua",1992,2,7,1,3,2,1,0,0,2,0,36.65,36.6,36.7,39.928894042969,21,11,7,3,2,1,0,4,4,5,0,3,1,4,3,1,1,2,8,1,1,1,2,2,1,2,NA,NA,NA,NA,NA,NA,NA,NA,NA,NA,4,5,5,4,5,5,2,5,2,4,4,4,3,2,3,3,3,3,1,2,3,4,3,3,5,1,2,2,3,1,3,4,2,4,2,2,4,4,4,4,1,1,1,1,2,1,4,4,1,1,1,4,1,1,4,1,1,1,1,1,1,1,6,5,1,1,1,1,2,1,2,3,2,1,1,1,1,1,4,1,1,1,1,5,5,5,5,5,5,5,5,5,3,1,3,4,4,3,3,1,1,2,2,3,1,3,2,1,2,1,3,3,1,1,2,3,3,4,2,2,1,2,1,3,4,5,1,5,1,1,4,5,3,1,1,3,2,1,5,5,2,1,2,5,3,2,3,4,4,2,4,4,1,1,1,3,5,5,5,2,2,4,3,4,4,2,1,5,2,1,1,1,1,3,5,2,3,2,1
"Poland",1992,2,7,1,4,2,1,30,14,2,NA,36.65,36.6,36.7,51.050003051758,67,NA,9,1,1,1,NA,4,2,4,1,3,2,4,4,2,1,2,5,2,1,1,1,1,NA,1,NA,NA,NA,NA,NA,NA,NA,NA,NA,NA,2,2,1,4,3,2,2,1,2,2,3,4,2,3,4,3,4,3,3,2,4,3,3,4,4,3,3,4,3,3,5,2,3,4,3,3,4,4,4,4,3,3,4,4,2,4,4,2,2,1,2,2,2,1,2,1,1,6,3,2,2,1,6,5,1,5,2,4,2,5,1,4,2,2,4,2,2,3,3,6,6,2,1,5,4,5,5,5,3,3,4,4,3,2,2,4,3,5,5,4,4,1,3,2,1,3,2,4,2,3,3,3,1,3,2,3,3,3,2,2,2,3,1,3,5,4,4,3,2,2,3,4,3,1,2,4,4,2,3,2,2,4,2,3,4,5,2,5,5,3,3,3,1,1,1,2,4,4,3,4,4,2,3,2,3,2,1,2,4,4,4,3,4,4,4,3,3,3,4
"VCU",1992,2,7,2,3,2,1,0,0,2,NA,36.69444444,36.72222222,36.66666667,37.553802490234,68,8.888888889,5,1,2,1,NA,4,4,5,NA,2,2,1,1,2,1,2,3,1,NA,NA,1,1,NA,2,"Student Today Alumni Tomorrow",NA,NA,NA,NA,2,NA,NA,NA,NA,2,2,5,3,3,3,2,1,2,4,5,3,3,4,3,4,2,2,3,3,3,3,4,4,5,2,4,4,4,1,4,4,4,4,4,4,2,4,2,4,2,2,4,4,4,2,2,7,7,7,7,7,7,7,7,7,7,1,7,7,7,7,7,7,7,7,1,7,7,1,7,1,7,7,5,7,1,1,7,7,7,7,7,5,5,4,4,2,4,1,1,1,2,1,1,1,1,1,1,4,4,3,4,4,3,4,4,2,4,4,3,3,2,4,2,4,6,3,3,3,3,1,4,4,4,4,3,1,4,4,4,4,4,3,3,4,4,3,4,4,2,3,4,3,3,4,4,3,3,4,3,2,3,2,3,2,1,4,4,2,4,4,3,4,2,1,3,3,5,2,2,2,2,4,2,3,2,4,4
"Bamberg",1992,2,7,1,2,2,1,0,0,2,NA,36.7,36.6,36.8,55.699996948242,87,1,1,1,2,1,NA,4,2,4,1,2,1,4,1,1,NA,1,NA,1,NA,NA,2,1,NA,1,NA,NA,NA,NA,NA,NA,NA,NA,NA,NA,3,2,4,5,2,3,3,3,4,4,5,3,4,2,2,2,3,2,2,2,1,2,2,2,3,2,1,1,1,1,1,1,1,1,1,1,1,1,1,1,1,1,1,1,1,1,1,2,2,1,4,4,3,1,3,5,1,7,1,1,1,2,1,2,1,1,1,3,1,1,1,1,2,1,1,1,1,2,1,2,2,1,2,5,5,4,5,5,4,2,5,4,3,2,2,1,3,3,3,3,3,1,4,1,2,2,2,2,4,1,2,3,3,3,3,3,3,4,2,3,1,2,2,2,1,3,1,2,2,1,3,4,3,2,3,3,2,2,2,3,2,4,3,4,3,5,2,3,3,2,3,2,1,1,2,1,2,3,3,1,2,3,3,3,2,3,3,2,4,4,4,2,2,1,3,3,2,2,1
"Poland",1992,1,6,2,3,2,1,36,0,2,NA,36.7,36.7,36.7,52.233306884766,58,-3,9,1,2,1,NA,4,2,4,1,4,1,2,2,1,NA,2,8,6,1,8,1,1,NA,2,"studia","sport","praca","on-line",NA,10,6,10,5,NA,3,2,2,4,3,4,3,5,2,3,4,3,4,3,2,3,4,5,5,4,3,3,4,2,4,4,3,1,1,1,4,1,3,1,2,1,4,4,3,4,1,1,1,1,1,2,3,3,3,3,4,6,6,5,5,4,1,3,3,4,2,4,6,4,2,2,2,7,3,5,2,4,4,4,3,2,6,6,3,6,6,3,3,2,2,4,2,1,1,1,1,3,4,3,3,6,3,2,2,2,3,2,3,2,2,3,3,2,2,2,2,1,1,2,1,5,6,6,6,6,5,4,4,3,2,4,1,2,2,2,4,5,5,2,2,4,3,3,2,2,3,5,4,2,3,4,2,4,1,3,4,1,2,5,2,2,2,2,2,1,2,4,4,4,3,2,2,3,3,4,4,3,2,4,5,4,3,4,3
"Kassel",1992,2,5,2,5,2,1,0,0,2,NA,36.735,36.74,36.73,51,52,7,1,1,2,1,NA,2,2,5,NA,4,3,8,5,2,2,2,8,3,1,2,4,1,NA,2,"studentische Unternehmensberatung",NA,NA,NA,NA,6,NA,NA,NA,NA,4,3,1,4,1,2,3,4,1,2,3,1,4,4,5,4,3,2,4,4,4,3,2,5,5,3,4,2,4,4,4,4,4,1,2,4,4,5,5,5,5,3,2,2,4,1,4,7,6,5,5,6,4,5,7,6,1,7,2,7,6,7,2,2,5,6,3,7,3,5,5,2,3,2,6,3,5,3,5,7,7,3,6,5,5,4,5,5,5,4,5,5,4,5,5,4,6,4,5,2,4,1,4,2,4,2,1,2,2,2,2,2,4,2,2,5,7,5,5,7,6,5,1,1,2,4,4,4,5,5,2,2,2,1,3,4,2,2,2,4,4,5,3,5,4,4,5,3,4,3,4,5,1,1,1,1,4,4,4,1,1,4,4,2,4,3,2,4,5,1,5,5,1,5,5,5,4,1,4
"Tsinghua",1992,2,7,1,3,2,1,2,0,2,0,36.75,36.6,36.9,39.928894042969,51,7,7,3,2,1,0,4,4,4,1,8,2,7,3,1,1,2,8,3,1,3,3,2,1,2,NA,NA,NA,NA,NA,NA,NA,NA,NA,NA,3,4,4,5,4,3,1,4,3,4,3,4,4,1,4,3,2,3,2,2,2,2,2,4,4,2,2,3,2,2,4,2,2,2,3,4,4,4,4,3,2,2,2,2,4,2,4,6,2,2,2,6,2,3,4,3,2,2,2,2,2,2,3,5,2,3,2,4,2,2,2,2,2,2,2,2,3,2,2,2,4,3,3,4,4,4,4,4,5,5,4,5,4,3,4,5,6,6,5,2,2,1,2,2,2,3,2,3,2,2,2,2,2,3,2,4,1,6,4,4,4,4,3,4,4,4,1,2,2,2,2,4,4,3,3,4,4,2,4,4,2,3,4,4,3,4,4,4,4,3,4,4,2,2,2,4,4,4,4,2,2,4,4,4,3,4,2,4,4,4,4,4,2,4,4,3,4,2,4
"Tsinghua",1992,1,7,1,3,2,1,1,0,2,0,36.75,36.7,36.8,39.928894042969,51,7,7,3,2,1,0,4,2,5,0,3,2,5,2,1,1,2,8,1,1,1,4,2,1,2,NA,NA,NA,NA,NA,NA,NA,NA,NA,NA,3,3,3,3,5,4,1,3,3,3,4,2,4,2,3,2,2,2,2,3,2,2,3,2,4,2,3,4,3,2,2,2,2,3,4,3,4,4,4,4,3,2,4,2,3,2,4,6,2,2,3,6,4,2,5,4,2,2,2,4,2,2,2,3,2,6,2,2,2,2,2,2,2,2,2,2,2,2,2,2,2,2,2,5,5,4,5,5,5,3,5,5,2,3,3,4,5,4,4,2,2,3,2,2,2,3,2,2,2,2,2,2,2,1,4,4,4,6,2,3,3,3,3,3,3,4,1,2,2,3,2,4,3,2,2,4,4,2,4,2,2,2,2,4,4,2,2,4,4,3,4,4,4,4,2,3,3,3,4,2,2,4,2,4,4,3,2,4,2,2,2,4,2,3,4,4,3,2,3
"VCU",1992,1,7,2,1,2,1,2,8,2,NA,36.77777778,36.55555556,37,37.553802490234,94,13.33333333,5,1,2,1,NA,4,4,5,NA,4,2,5,3,2,1,2,8,1,NA,NA,1,1,NA,1,NA,NA,NA,NA,NA,NA,NA,NA,NA,NA,3,1,2,1,2,1,3,2,1,1,3,2,4,4,3,4,2,3,3,4,3,3,4,4,2,1,3,4,4,4,5,2,4,4,2,5,3,4,2,2,4,1,1,4,4,3,3,4,4,4,4,4,5,4,4,4,4,5,4,4,5,4,4,6,4,4,4,4,4,4,4,4,4,4,4,4,4,5,4,4,4,4,4,5,3,4,5,4,5,3,4,2,2,6,5,6,6,3,3,4,4,2,4,4,4,4,4,2,2,2,4,2,3,5,4,4,4,6,4,2,1,4,2,4,5,5,1,2,3,2,2,5,2,2,5,5,2,4,2,2,2,2,5,4,4,2,4,3,3,4,1,1,3,3,3,1,5,4,2,3,1,4,5,2,4,1,4,4,4,2,3,3,1,2,1,2,2,1,1
"Serbia",1992,2,7,1,4,2,1,0,0,2,NA,36.8,36.8,36.8,44.818603515625,50,8,6,1,2,1,NA,4,4,5,NA,7,6,8,7,1,NA,2,8,3,1,2,1,2,1,1,NA,NA,NA,NA,NA,NA,NA,NA,NA,NA,5,3,4,4,4,4,2,3,4,2,3,4,5,1,4,3,2,1,1,2,2,2,2,3,5,2,2,2,1,1,3,3,1,2,1,5,3,3,3,3,1,1,1,1,3,1,3,1,1,1,1,1,1,1,1,1,1,1,1,1,1,1,1,2,1,1,1,4,1,1,1,1,1,1,1,1,1,1,1,3,4,1,1,5,4,3,5,1,2,1,1,1,3,4,6,1,2,2,4,2,2,3,2,2,1,5,1,5,3,3,1,1,1,2,1,5,4,5,1,2,2,3,2,4,3,3,2,4,3,1,1,5,2,1,5,3,5,4,3,5,5,5,3,2,5,1,1,3,4,3,4,4,4,5,1,1,2,4,3,5,3,1,3,5,1,5,1,5,5,5,3,1,3,5,1,3,1,3,4
"Serbia",1992,2,7,2,4,2,1,3,0,1,8,36.8,36.8,36.8,44.818603515625,56,6,6,1,2,1,NA,4,4,5,NA,4,2,6,6,1,NA,2,8,1,NA,NA,1,1,NA,1,NA,NA,NA,NA,NA,NA,NA,NA,NA,NA,5,4,5,4,4,3,5,4,4,4,3,4,3,2,4,2,2,2,2,2,2,2,2,3,4,2,2,2,3,3,2,2,1,2,2,3,3,4,4,2,2,1,1,1,2,2,4,3,3,4,5,7,5,2,5,4,4,4,5,5,4,5,4,4,3,1,NA,7,1,3,2,2,3,3,3,3,4,3,1,7,7,NA,4,4,4,4,5,4,3,3,4,4,2,2,3,3,3,2,3,2,2,1,2,1,1,2,1,2,2,2,2,2,2,4,2,4,4,5,1,3,4,4,3,2,2,5,3,4,3,2,3,2,2,3,1,2,3,2,4,4,3,4,4,3,4,4,2,2,2,3,2,4,2,4,2,1,5,3,4,2,2,3,2,4,4,1,2,4,4,1,3,4,2,5,4,2,4,3,4
"VCU",1992,2,7,1,3,2,1,0,0,2,NA,36.88888889,36.88888889,36.88888889,37.552200317383,97,11.11111111,5,1,2,1,NA,4,2,4,2,1,NA,5,4,2,2,2,4,3,1,5,1,2,5,2,"Camp Kesem",NA,NA,NA,NA,15,NA,NA,NA,NA,4,4,4,3,5,4,4,4,2,3,4,4,3,2,3,3,3,3,2,3,3,3,3,3,3,3,3,3,2,3,3,3,3,3,4,2,4,4,4,4,4,2,2,2,2,2,4,4,1,1,1,1,1,1,1,1,1,1,1,1,1,1,1,1,1,1,1,1,1,1,1,1,1,1,1,1,1,1,1,1,1,1,1,4,4,4,4,4,4,4,3,3,6,7,7,7,1,6,6,3,4,3,3,3,2,4,4,4,3,3,2,4,1,3,2,2,5,6,3,2,3,3,3,3,4,4,1,3,4,4,4,4,3,3,4,4,3,4,3,3,3,3,4,4,3,4,4,4,3,3,3,2,2,4,3,3,4,4,4,4,4,4,5,3,4,2,2,4,4,3,3,4,4,4,4,4,3,3,1
"Southampton",1992,2,7,1,3,2,1,9,0,2,NA,36.9,36.8,37,54.962097167969,86,7,5,1,2,1,NA,4,4,5,NA,2,1,6,6,1,NA,1,NA,3,1,8,1,1,NA,1,NA,NA,NA,NA,NA,NA,NA,NA,NA,NA,3,3,4,3,3,2,4,1,4,3,3,3,4,3,2,4,3,4,3,3,3,3,2,3,2,2,4,3,4,3,3,3,2,2,2,4,4,4,4,4,2,1,3,2,1,4,3,5,4,4,4,3,5,5,5,4,5,3,4,4,4,4,5,7,3,3,3,4,2,4,3,3,3,4,3,3,3,3,3,3,4,3,4,4,4,4,3,4,4,3,4,5,4,4,5,4,4,5,5,4,3,1,4,3,3,2,2,2,3,4,2,2,2,3,4,4,3,7,3,3,3,2,2,4,2,5,5,4,2,2,4,2,2,3,2,2,4,2,4,3,2,3,3,4,4,5,4,4,3,3,2,2,2,2,2,2,3,3,3,1,2,4,3,4,3,4,2,3,3,4,4,5,2,2,4,5,3,2,2
"VCU",1992,1,7,1,4,1,1,0,0,2,NA,36.91666667,36.77777778,37.05555556,39.739196777344,91,14.44444444,5,1,2,1,NA,4,4,4,4,2,1,3,2,1,NA,2,5,3,1,3,1,1,NA,1,NA,NA,NA,NA,NA,NA,NA,NA,NA,NA,4,4,4,4,4,4,2,3,2,2,3,3,4,4,3,4,3,3,3,3,4,3,3,3,4,3,4,2,3,3,4,2,2,3,2,4,4,3,3,3,3,1,2,2,2,1,3,2,3,2,2,6,3,2,2,2,2,3,2,2,2,2,3,4,6,2,2,2,2,2,2,2,2,2,2,2,2,2,2,2,2,2,1,4,4,4,4,4,4,4,4,3,5,4,3,3,4,4,3,2,2,2,2,2,2,2,2,2,2,2,2,2,2,3,2,3,3,3,3,2,4,3,4,3,3,4,3,2,3,3,3,4,2,2,3,3,3,2,3,4,3,2,4,4,3,4,3,4,4,3,4,3,2,3,3,2,4,5,1,4,3,3,3,4,3,4,3,3,3,4,3,3,3,4,3,4,4,4,3
"VCU",1992,2,1,1,3,2,1,1,0,2,NA,36.91666667,36.77777778,37.05555556,40.214004516602,94,13.33333333,5,1,2,2,2,4,4,4,2,4,2,5,5,1,NA,2,2,3,8,8,1,1,NA,1,NA,NA,NA,NA,NA,NA,NA,NA,NA,NA,5,4,2,5,5,5,5,1,5,2,5,5,1,3,4,4,2,2,2,2,4,2,2,5,4,2,3,5,4,2,4,2,2,4,4,5,4,3,4,2,1,1,1,1,2,1,2,1,5,3,5,7,5,5,3,3,5,2,6,3,7,1,5,3,3,1,3,3,3,3,1,2,3,2,2,3,2,2,3,3,2,2,3,5,5,5,5,5,5,5,5,5,6,7,7,7,7,4,7,1,1,1,1,1,1,5,1,1,1,1,1,5,1,3,1,3,4,4,2,3,3,3,5,1,1,5,1,5,1,1,5,5,2,2,1,2,2,2,4,4,1,4,1,3,4,5,3,2,4,4,4,5,3,2,3,1,5,3,5,1,1,5,5,1,5,1,1,5,5,1,3,1,5,5,3,2,4,1,5
"Poland",1992,2,7,1,3,2,1,6,1,2,NA,36.935,36.95,36.92,54.5,81,-3,9,1,1,1,NA,4,2,3,1,3,2,2,2,2,1,2,4,2,1,1,1,2,2,1,NA,NA,NA,NA,NA,NA,NA,NA,NA,NA,5,5,5,4,5,5,4,5,4,4,5,5,3,5,5,5,3,3,3,3,5,3,4,4,5,4,5,3,2,3,3,2,2,3,1,2,5,4,4,4,4,1,2,1,3,2,4,4,3,5,5,4,4,2,4,3,2,4,4,2,1,2,7,6,3,5,5,7,3,5,5,2,5,5,6,4,6,6,2,7,7,3,6,5,4,5,4,4,4,4,4,4,7,6,7,7,7,7,7,3,4,4,4,4,4,4,4,3,3,2,2,4,3,3,3,4,7,7,6,7,6,6,2,4,4,4,3,2,2,2,4,4,2,2,3,4,4,3,3,3,1,3,5,5,4,3,2,3,4,3,2,3,1,1,2,2,4,4,4,3,2,4,4,4,4,1,1,3,4,3,2,3,3,4,3,4,4,3,4
"Tsinghua",1992,2,7,1,2,2,1,0,0,2,0,36.95,36.9,37,NA,87,17,7,3,2,1,0,4,4,5,0,5,3,3,1,1,1,2,2,1,1,1,1,2,8,1,"ÑÐ»á","°à¼¯Ìå",NA,NA,NA,5,18,NA,NA,NA,2,4,4,4,5,2,2,4,4,3,4,4,4,3,3,4,3,4,3,3,2,3,5,2,4,2,3,4,4,3,4,4,4,4,4,4,4,4,4,4,4,3,2,3,2,3,3,6,2,5,5,6,5,2,5,3,2,3,2,2,5,5,2,5,2,6,2,3,2,2,5,3,3,2,2,2,6,2,5,2,3,3,2,4,4,4,3,4,4,4,4,4,2,2,2,4,4,4,5,4,2,2,3,2,4,3,3,4,2,2,2,4,2,2,2,2,2,4,8,4,1,3,2,2,3,5,4,4,3,2,4,3,2,2,2,2,4,2,4,4,2,4,4,2,4,2,2,4,4,3,4,4,2,4,2,2,2,4,3,2,2,4,2,3,3,2,2,4,2,2,4,4,2,2,4,4,4,4,3
"Oslo",1992,2,7,1,4,2,1,5,3,2,NA,37.05,36.9,37.2,NA,74,-14,4,1,1,1,NA,4,4,4,2,7,4,8,8,1,NA,2,8,3,1,6,1,1,NA,1,NA,NA,NA,NA,NA,NA,NA,NA,NA,NA,2,2,4,5,4,3,2,3,2,4,4,4,4,3,2,3,3,2,3,3,4,3,2,2,4,3,2,2,4,1,1,1,2,2,4,2,4,2,3,4,4,1,2,1,2,2,2,2,3,3,3,4,3,2,3,2,2,2,2,2,2,2,5,7,1,2,2,3,2,2,2,2,2,1,2,2,2,2,1,2,3,1,3,3,4,4,4,2,2,2,3,4,5,5,5,6,6,5,4,2,2,1,2,1,2,2,2,3,2,2,2,2,1,2,1,4,4,6,2,2,3,2,2,2,4,4,4,3,4,2,2,3,2,1,2,4,4,2,3,3,4,3,3,2,4,4,4,5,4,5,5,4,1,3,1,2,2,2,2,3,2,2,2,4,3,2,2,4,3,4,2,4,2,2,4,3,2,2,1
"VCU",1992,2,7,1,3,2,1,4,0,2,NA,37.05555556,37.05555556,37.05555556,37.613403320312,45,6.666666667,5,1,1,1,NA,1,NA,4,4,4,4,6,6,1,NA,2,3,3,1,6,1,1,NA,1,NA,NA,NA,NA,NA,NA,NA,NA,NA,NA,3,5,5,3,3,3,5,4,2,1,4,3,3,3,4,5,3,3,3,3,4,4,3,4,3,3,4,5,5,5,3,3,3,5,5,4,5,5,5,5,5,2,3,5,3,5,5,5,5,5,4,3,5,6,4,3,5,5,1,4,2,2,5,3,3,3,2,2,2,2,2,1,3,2,1,1,1,2,1,1,1,2,3,3,3,4,3,4,2,2,1,1,5,5,5,5,5,4,4,4,4,2,2,4,4,4,4,4,3,4,2,2,2,4,2,4,6,4,4,4,4,4,2,4,2,5,4,2,4,5,5,4,1,2,4,4,4,2,5,4,4,4,4,3,3,4,4,4,4,4,5,3,1,1,3,4,5,4,4,4,2,4,5,3,4,2,3,4,5,5,3,3,4,4,3,3,4,2,1
"Kassel",1992,2,7,2,3,2,1,0,0,1,1,37.06,37.13,36.99,51,82,2,1,1,2,1,NA,4,4,5,NA,4,2,8,4,1,NA,2,8,3,1,5,1,1,NA,1,NA,NA,NA,NA,NA,NA,NA,NA,NA,NA,3,3,2,2,1,3,2,2,3,2,3,2,2,3,3,4,3,3,4,3,4,4,3,3,4,3,2,2,2,1,1,1,1,1,3,2,4,3,3,3,1,1,1,2,1,3,2,6,5,6,6,6,5,3,5,6,5,6,6,3,3,3,3,6,3,4,4,3,2,3,1,2,4,4,5,4,5,5,2,5,4,2,4,4,4,4,3,2,2,2,3,2,4,6,6,5,5,5,5,2,3,1,3,2,2,3,2,2,1,2,3,2,2,4,2,4,7,6,5,5,4,4,2,2,3,3,2,2,2,2,4,4,4,3,3,5,5,2,3,4,4,5,4,4,3,5,5,4,3,3,4,3,2,2,3,5,2,4,3,3,4,2,3,2,3,4,2,4,4,3,5,3,3,3,2,2,2,1,4
"Oxford",1992,2,7,2,3,1,1,0,0,2,NA,37.15,37.1,37.2,51.75,74,2.777777778,5,1,2,1,NA,4,2,5,NA,2,1,5,3,1,NA,2,4,1,NA,NA,2,1,NA,1,NA,NA,NA,NA,NA,NA,NA,NA,NA,NA,2,2,2,4,2,3,1,1,3,1,2,3,4,3,3,3,3,3,3,3,4,3,3,4,3,3,3,2,4,3,4,4,1,3,2,4,2,3,3,3,2,2,3,4,2,3,3,2,4,3,2,3,3,2,3,3,4,3,2,3,2,2,2,4,1,5,4,5,3,4,3,4,5,5,2,2,5,2,4,5,4,3,3,4,4,4,4,4,3,2,3,3,5,7,7,6,6,5,6,2,3,1,3,2,1,2,3,2,2,2,4,3,2,2,2,3,3,4,2,2,3,3,3,5,5,3,1,2,5,3,3,5,5,1,5,4,2,3,4,4,3,4,4,3,4,3,3,4,3,3,3,3,2,2,3,1,3,3,2,4,4,2,3,3,2,2,3,3,3,4,4,2,3,3,4,3,2,2,2
"Poland",1992,2,7,1,2,2,1,12,1,2,NA,38,38,38,52.25,70,1,9,1,1,1,NA,2,2,4,1,6,3,3,3,2,1,2,5,2,1,1,2,1,NA,2,"uniwersytecka",NA,NA,NA,NA,5,NA,NA,NA,NA,2,2,3,3,4,4,2,3,3,4,4,3,4,2,3,4,4,4,4,3,3,3,3,4,5,4,3,3,3,2,3,2,2,3,2,4,4,4,3,2,3,2,3,4,2,2,4,1,1,1,1,4,3,1,2,2,1,7,2,2,2,1,5,3,1,2,2,4,2,1,1,1,2,2,1,2,2,2,2,6,4,2,2,4,4,4,4,4,3,2,3,3,5,4,4,5,4,5,6,2,3,4,2,2,3,4,3,2,3,2,3,2,1,3,2,5,5,6,6,6,6,6,5,5,3,3,1,5,1,3,3,5,3,1,4,4,2,4,3,2,3,4,4,4,4,5,4,5,2,3,4,4,2,3,1,2,3,3,3,2,2,4,4,4,3,4,1,4,3,4,2,4,3,5,3,4,3,2,3
"Oxford",1993,2,7,1,2,2,1,3,0,2,NA,35.15,34.4,35.9,51.75,89,-1.666666667,5,1,2,1,NA,4,4,2,1,8,5,5,4,1,NA,2,5,1,NA,NA,1,1,NA,2,"Sport","Social","Coffee Club",NA,NA,3,4,2,NA,NA,1,4,2,2,2,1,1,3,4,3,3,1,1,4,2,4,4,4,3,4,4,3,4,3,3,4,3,2,3,2,3,2,2,3,2,3,2,2,4,2,2,2,2,2,2,2,2,4,4,4,4,4,4,4,4,4,4,3,4,4,4,4,4,4,4,5,4,4,4,4,4,4,4,4,4,4,4,4,5,4,4,4,4,4,4,4,4,4,4,4,4,4,7,4,4,4,4,4,5,4,4,4,4,4,4,4,4,4,4,4,2,4,2,4,2,4,5,2,2,2,2,2,5,3,5,5,5,5,5,3,5,1,1,1,1,1,5,1,5,5,4,4,5,5,4,5,5,5,3,4,3,3,3,3,3,5,3,4,3,5,5,5,5,5,3,3,3,3,4,3,4,3,3,3,3,3,3,3,3
"METU",1993,1,2,2,3,2,1,3,0,1,3,35.3,34.6,36,39.911697387695,64,2,3,2,2,1,NA,4,4,5,NA,3,1,5,5,1,NA,2,4,1,NA,NA,1,1,NA,1,NA,NA,NA,NA,NA,NA,NA,NA,NA,NA,2,3,1,5,2,3,2,2,1,1,2,3,3,3,3,3,3,3,3,3,3,3,4,3,3,3,3,2,2,2,2,4,2,2,2,4,2,2,2,2,2,2,2,2,2,2,4,4,4,4,4,4,4,4,4,4,4,4,4,4,4,4,4,4,4,4,4,4,4,4,3,4,4,4,4,4,4,4,4,4,4,4,4,4,4,4,4,4,4,4,4,4,3,2,4,3,2,3,3,3,3,3,3,3,3,3,3,3,3,3,3,3,3,3,3,1,3,2,2,1,2,2,2,2,2,4,3,3,3,3,3,4,2,2,2,4,4,2,2,4,3,4,4,2,4,4,4,4,4,4,4,4,2,2,2,3,4,4,2,4,2,4,2,4,4,3,2,4,3,4,4,4,2,4,3,4,4,3,2
"Oxford",1993,2,5,2,2,2,1,2,0,2,NA,35.5,34.9,36.1,51.75,89,-1.666666667,5,1,2,1,NA,4,2,5,NA,3,1,4,4,1,NA,2,8,1,NA,NA,1,1,NA,1,NA,NA,NA,NA,NA,NA,NA,NA,NA,NA,2,3,2,4,2,4,1,2,2,3,4,4,4,3,3,4,3,3,3,3,3,3,3,3,3,2,2,3,4,2,1,1,3,4,3,2,2,2,2,2,1,1,4,2,4,2,3,2,2,2,2,4,2,2,3,4,3,4,3,4,2,2,3,3,3,4,3,4,4,4,4,3,4,4,4,4,5,4,3,4,3,4,5,4,4,4,4,4,4,3,4,4,4,5,3,3,4,4,4,2,3,1,3,2,2,2,3,4,2,2,2,2,3,4,2,4,4,4,4,3,2,3,4,2,4,4,3,5,2,1,5,4,3,2,2,2,3,2,3,3,2,2,3,3,3,3,3,4,3,2,3,3,2,2,3,2,2,3,2,2,2,3,3,3,3,2,3,2,3,2,2,1,3,4,3,3,4,1,3
"Oxford",1993,2,7,1,4,2,1,0,2,2,NA,35.55,34.7,36.4,51.75,74,2.777777778,5,1,2,1,NA,4,4,5,NA,3,2,8,8,1,NA,2,8,1,NA,NA,1,1,NA,2,"University peer support","University play",NA,NA,NA,2,1,NA,NA,NA,3,4,3,3,2,2,3,1,2,4,4,2,3,2,4,4,2,2,2,2,3,2,2,2,4,2,3,4,4,3,4,4,4,4,3,5,4,4,4,4,2,3,3,3,3,1,4,5,6,4,6,4,7,6,7,6,4,5,5,4,2,5,5,5,2,3,3,7,4,3,4,6,4,4,1,2,3,3,6,5,3,1,4,5,4,4,5,5,3,3,4,4,6,4,4,4,5,5,5,3,2,1,2,3,2,3,2,1,2,2,2,1,1,1,2,5,8,6,6,5,5,7,2,4,4,4,4,2,2,2,2,3,2,2,2,3,2,2,2,3,3,3,4,2,4,4,3,4,3,4,4,4,2,2,3,2,2,2,2,3,2,2,2,4,2,2,2,4,4,3,4,4,2,3,4,4,4,2,2
"METU",1993,1,7,1,3,2,1,6,0,2,NA,35.6,35.2,36,39.911697387695,74,12,3,2,1,1,NA,4,4,4,1,3,1,5,5,1,NA,2,8,1,NA,NA,1,1,NA,2,"Astronomi Toplulu?u","ANA?EV",NA,NA,NA,6,2,NA,NA,NA,4,4,4,4,4,4,3,2,3,4,4,4,5,2,2,3,3,2,2,2,2,2,2,3,4,3,2,2,2,3,2,4,2,3,2,2,4,4,4,4,4,2,2,2,2,2,3,5,2,1,1,5,5,2,2,2,1,3,1,2,1,2,5,1,1,1,2,1,2,1,1,1,2,2,2,2,3,2,1,2,2,2,2,4,3,4,4,4,5,4,4,4,5,7,7,7,6,5,5,2,2,4,2,2,2,3,3,2,2,2,2,2,4,2,2,5,6,6,4,3,4,5,2,2,4,4,3,4,3,2,4,4,2,2,2,4,4,4,2,4,4,4,4,4,4,4,4,4,2,3,4,3,2,3,2,4,4,4,4,3,2,4,2,4,2,2,2,4,4,4,4,4,4,2,2,2,2,4,2
"METU",1993,2,3,1,3,2,1,1,0,2,NA,35.6,35.1,36.1,39.911697387695,56,4,3,2,2,1,NA,4,4,4,2,7,2,5,5,1,NA,2,8,1,NA,NA,2,1,NA,1,NA,NA,NA,NA,NA,NA,NA,NA,NA,NA,2,3,4,2,2,3,2,2,2,3,4,1,4,3,4,4,2,2,2,2,2,3,3,4,4,2,2,3,4,3,3,4,2,2,3,1,5,4,5,5,5,1,2,2,3,2,5,5,3,5,5,6,3,6,2,4,1,3,3,2,2,2,5,2,1,6,2,4,3,2,2,3,3,3,2,2,1,1,4,5,6,3,6,5,5,5,5,5,5,5,5,5,5,4,4,4,3,2,3,3,2,2,3,1,4,4,2,3,2,1,2,1,2,3,2,4,4,5,1,3,3,3,2,2,4,4,4,4,2,2,4,3,2,1,2,3,4,4,3,4,4,4,4,2,4,4,4,4,4,3,5,5,2,2,1,2,1,4,3,4,2,2,4,4,2,5,1,5,3,5,5,5,1,4,5,2,4,2,4
"SMU",1993,1,7,1,3,2,1,0,4,1,5,35.6,35.7,35.5,1.2931060791016,79,26,5,1,1,1,NA,4,1,4,1,2,1,4,3,1,NA,1,NA,1,NA,NA,1,1,NA,1,NA,NA,NA,NA,NA,NA,NA,NA,NA,NA,3,2,2,2,1,3,1,2,2,2,3,3,4,3,3,4,3,4,3,3,3,3,4,3,4,3,3,2,4,2,4,4,4,3,2,4,4,4,2,2,2,2,2,2,2,2,2,3,3,3,3,3,3,3,3,3,3,3,3,3,3,3,3,5,5,3,3,3,3,3,3,3,3,3,3,3,3,3,3,3,3,3,3,4,4,4,3,4,2,2,4,4,3,5,5,5,3,3,3,2,2,2,2,2,2,2,2,2,2,2,4,4,2,4,4,1,2,2,2,2,2,1,2,4,4,2,2,2,4,4,4,4,4,2,4,4,4,4,2,2,4,4,4,4,2,4,4,4,4,4,4,4,2,2,2,2,2,2,4,2,2,2,2,2,2,2,4,3,4,4,4,2,4,4,2,2,2,2,2
"SMU",1993,1,7,1,4,2,1,0,0,1,1,35.6,35.6,35.6,1.2931060791016,70,27,5,1,2,1,NA,4,4,5,NA,5,5,8,3,1,NA,2,8,3,1,1,1,1,NA,1,NA,NA,NA,NA,NA,NA,NA,NA,NA,NA,4,2,4,2,2,3,3,3,2,2,4,2,2,2,4,4,3,3,1,3,2,3,3,3,5,2,3,3,3,3,4,4,3,4,4,4,2,2,2,2,2,4,4,4,2,3,2,4,4,2,2,4,3,3,2,4,5,2,2,2,2,2,4,2,2,2,1,3,2,1,3,2,1,1,1,1,1,1,2,1,2,2,1,5,5,5,5,5,5,5,5,5,3,5,4,4,4,3,4,4,4,2,3,2,2,4,4,4,2,2,2,2,3,4,2,4,2,2,2,1,1,1,4,5,5,2,1,2,4,5,3,5,3,2,4,4,3,4,3,2,3,3,4,4,3,3,2,5,5,3,4,4,1,1,2,1,1,4,4,1,2,4,4,4,3,1,4,3,3,2,2,2,4,4,3,2,2,2,1
"METU",1993,1,7,1,4,2,1,6,0,1,20,35.65,35.3,36,39.911697387695,70,3,3,2,2,1,NA,4,2,5,NA,5,5,5,5,2,8,2,3,3,1,1,1,2,8,2,"ngo","ip",NA,NA,NA,8,12,NA,NA,NA,3,1,1,1,1,3,1,2,1,1,3,1,1,3,4,4,3,3,3,3,4,3,4,4,3,2,3,4,4,4,4,4,3,4,3,4,2,4,2,2,4,2,4,4,2,2,2,7,2,2,4,2,2,2,5,2,2,2,4,4,3,2,7,3,2,6,4,2,4,4,6,5,1,2,5,6,5,4,3,2,1,2,1,5,5,5,5,5,5,5,5,5,6,7,7,7,7,7,7,5,5,3,4,5,2,4,5,2,2,5,4,5,2,2,5,4,6,6,2,2,6,6,4,4,5,5,2,4,4,4,4,5,5,2,2,4,4,4,3,3,4,4,2,4,1,5,5,5,5,3,5,5,1,1,1,2,1,1,1,1,4,3,4,4,4,4,2,4,2,5,5,5,4,3,5,3,3,3,3
"METU",1993,2,7,1,3,2,1,NA,NA,1,4,35.7,35.3,36.1,NA,68,5,3,2,1,1,NA,4,4,4,2,3,3,5,5,1,NA,2,8,1,NA,NA,1,1,NA,2,"ODT? Capoeira Toplulu?u",NA,NA,NA,NA,6,NA,NA,NA,NA,3,3,2,3,2,3,1,2,5,2,3,3,2,4,4,5,3,3,3,3,4,3,3,4,5,3,3,3,2,2,3,2,2,4,2,2,4,3,4,4,4,2,2,2,4,2,4,2,2,1,2,6,2,1,2,2,2,4,1,2,2,1,4,6,2,1,1,1,1,1,1,1,1,1,1,1,1,1,1,1,1,1,2,5,4,5,5,4,4,2,4,4,5,5,5,5,5,5,5,3,3,1,2,3,4,4,2,3,3,4,1,2,2,3,1,5,7,6,5,6,5,7,3,2,5,5,3,4,4,4,5,5,5,3,3,5,5,4,3,4,4,4,5,5,4,3,4,4,4,4,5,4,1,1,2,5,3,5,5,5,2,4,3,4,4,5,3,4,4,5,3,5,2,5,5,5,3,4,2
"SMU",1993,1,1,2,4,2,1,1,0,2,NA,35.7,35.7,35.7,1.2931060791016,70,26,5,1,2,1,NA,4,4,5,NA,4,3,3,3,1,NA,2,3,1,NA,NA,1,2,6,2,"Volunteer Group",NA,NA,NA,NA,5,NA,NA,NA,NA,2,4,2,2,2,3,2,2,4,4,3,4,2,4,4,3,3,3,3,3,4,2,4,2,2,3,3,3,4,3,4,3,2,2,4,3,4,3,3,4,2,4,2,3,3,2,4,4,5,3,5,5,4,3,3,5,3,5,4,5,5,5,4,5,3,3,4,5,4,5,4,4,6,5,5,3,2,4,3,4,4,5,7,4,3,4,4,4,4,3,2,3,4,3,5,3,3,3,5,3,3,4,3,3,2,4,3,3,4,4,2,4,4,4,3,4,2,5,5,3,5,4,4,3,3,4,3,3,2,3,3,4,3,2,3,3,2,3,3,4,4,2,3,3,3,4,4,3,2,2,3,3,4,2,3,3,2,3,2,4,4,3,3,4,3,4,2,2,3,3,3,2,3,4,3,3,4,2,3
"SMU",1993,2,7,1,3,2,1,0,0,2,NA,35.7,35.7,35.7,1.2931060791016,71,26,5,1,2,1,NA,4,4,5,NA,1,NA,6,3,1,NA,2,8,3,2,8,1,2,3,1,NA,NA,NA,NA,NA,NA,NA,NA,NA,NA,3,2,3,2,3,4,2,3,2,2,3,2,2,3,4,4,2,3,3,3,3,2,3,4,4,2,4,4,4,4,4,3,2,4,3,4,4,4,4,4,4,2,3,2,2,3,4,5,6,5,6,4,3,2,3,2,6,6,2,5,2,4,6,2,3,5,3,3,2,2,2,4,2,5,2,2,1,2,4,2,3,2,3,4,2,4,4,3,4,2,4,4,6,5,5,5,5,4,5,4,4,2,4,4,2,4,3,2,3,3,2,2,2,3,2,4,3,6,2,4,4,4,1,4,4,2,1,2,2,3,4,4,4,1,3,4,4,4,4,3,2,2,5,5,4,4,3,4,2,2,2,2,2,4,3,4,2,5,2,3,3,4,4,4,4,2,3,2,4,2,2,2,4,4,2,4,3,2,4
"VCU",1993,1,7,2,5,2,1,1,0,2,NA,35.72222222,35.44444444,36,37.552200317383,91,14.44444444,5,1,2,1,NA,4,4,5,NA,8,2,3,3,1,NA,2,8,1,NA,NA,1,1,NA,1,NA,NA,NA,NA,NA,NA,NA,NA,NA,NA,4,4,3,2,2,4,3,4,3,4,3,5,4,2,3,2,2,3,2,2,2,2,2,2,2,2,2,1,2,1,2,1,1,2,1,2,3,1,2,2,1,1,1,1,3,1,2,2,3,2,2,2,1,1,2,2,1,2,4,5,3,2,2,2,1,2,3,2,3,3,2,4,2,2,2,2,3,2,2,4,4,2,3,4,4,4,4,4,3,3,4,3,3,3,3,4,4,4,5,2,2,2,2,2,2,2,2,2,3,2,1,1,2,4,2,1,1,3,1,3,3,1,2,4,3,3,3,2,2,2,2,4,2,2,4,4,3,3,2,3,3,4,3,3,4,3,3,4,3,4,4,3,2,2,3,1,5,4,3,4,3,2,2,4,3,3,3,3,3,2,2,2,4,3,2,2,4,4,2
"METU",1993,1,7,1,4,2,1,6,0,2,NA,35.75,35.5,36,39.911697387695,78,8,3,2,2,1,NA,4,2,4,1,2,2,4,2,1,NA,2,4,3,1,4,1,1,NA,1,NA,NA,NA,NA,NA,NA,NA,NA,NA,NA,4,2,4,2,5,5,3,4,3,4,4,4,5,2,3,3,2,2,1,3,2,2,2,3,5,2,2,4,3,2,4,3,4,4,2,4,5,4,5,5,5,2,2,2,4,2,5,5,5,3,5,6,4,2,3,2,2,3,3,3,3,2,5,5,2,2,1,3,1,2,1,2,1,2,3,2,1,1,2,1,2,2,2,2,2,4,4,2,2,1,1,2,3,6,6,6,6,4,4,2,2,1,2,2,2,2,3,2,2,2,1,2,2,2,2,4,2,2,1,2,3,3,2,2,4,4,3,2,4,4,2,4,4,5,4,4,3,4,4,4,3,4,4,4,4,3,4,5,2,3,5,2,2,2,1,3,2,3,4,2,1,4,4,4,4,4,2,4,4,5,5,4,3,2,4,3,4,2,2
"Kassel",1993,2,7,1,5,2,1,1,0,2,NA,35.75,35.7,35.8,50.13330078125,69,-1,1,1,2,1,NA,4,4,5,NA,2,2,8,5,1,NA,2,6,3,1,4,1,2,5,2,"Fachschaftsrat","/","/","/","/",7,0,0,0,0,4,3,5,5,4,5,5,5,5,5,5,4,5,2,4,4,2,1,2,2,4,2,2,4,4,1,1,4,5,4,5,2,1,2,3,5,4,4,4,4,3,2,2,2,1,1,4,1,1,1,1,1,5,1,1,1,5,1,1,1,1,1,1,5,2,4,3,6,3,4,2,6,2,5,2,2,2,3,2,6,6,1,2,4,4,4,4,2,1,1,3,4,3,5,5,5,4,3,2,3,4,1,4,2,2,2,2,4,1,2,3,2,2,2,2,5,6,1,2,4,4,3,2,4,3,5,2,2,2,4,1,5,4,2,3,4,2,2,3,2,1,5,5,5,4,3,3,3,4,2,4,2,3,2,4,4,4,3,2,2,1,2,2,3,1,1,1,4,5,2,2,1,1,1,3,2,4,1,2
"METU",1993,1,5,1,3,2,1,2,0,2,NA,35.8,35.1,36.5,39.911697387695,62,5,3,2,3,1,NA,4,4,4,4,3,2,7,7,1,NA,2,8,1,NA,NA,3,2,4,2,"AEGEE","Standing honor","petrol",NA,NA,7,4,6,NA,NA,4,5,1,3,2,4,2,3,5,3,4,2,3,3,3,3,2,2,3,3,3,2,3,3,4,2,3,2,4,2,3,2,2,4,2,4,4,4,4,4,4,3,2,2,2,2,4,6,2,4,5,6,6,5,6,6,2,5,5,3,6,2,5,5,2,2,2,2,2,2,6,2,2,2,2,2,2,2,2,2,2,2,2,4,4,4,4,4,2,2,3,3,6,2,2,2,2,2,2,4,4,2,2,2,4,4,4,3,2,2,2,4,4,2,2,4,4,5,1,3,1,4,2,2,4,4,1,1,2,4,1,5,5,2,5,5,2,4,2,4,2,4,4,4,4,4,4,4,4,3,4,3,2,2,2,2,2,4,2,4,4,4,3,4,3,3,4,3,4,3,3,3,4,3,3,3,2,2,2
"Zurich",1993,1,6,2,3,2,1,7,0,2,NA,35.8,35.2,36.4,NA,66,12,1,1,2,1,NA,4,4,5,NA,5,1,5,4,1,NA,2,3,1,NA,NA,1,1,NA,1,NA,NA,NA,NA,NA,NA,NA,NA,NA,NA,2,2,1,3,2,2,1,2,1,3,3,1,2,4,3,4,3,4,4,4,3,3,4,4,4,2,4,3,4,2,4,2,1,2,4,4,4,4,4,3,2,1,1,1,1,2,2,6,6,6,6,6,6,6,6,6,4,2,4,4,5,7,3,6,3,6,3,6,4,5,4,2,5,5,3,3,5,5,5,6,6,3,4,5,4,5,4,4,5,4,4,4,6,5,5,5,6,4,5,1,4,2,3,2,2,4,2,2,2,3,3,2,1,4,3,5,7,5,4,2,5,6,4,3,2,5,4,4,2,2,4,4,4,2,1,5,5,2,2,3,1,4,4,5,3,4,3,3,2,3,4,4,1,2,2,1,2,4,3,1,2,4,3,4,4,1,2,4,2,1,2,1,3,5,2,2,4,3,2
"SMU",1993,1,4,1,5,2,1,3,0,2,NA,35.8,35.6,36,1.2931060791016,70,27,5,1,2,1,NA,2,2,5,NA,8,1,8,8,1,NA,2,8,1,NA,NA,1,2,6,1,NA,NA,NA,NA,NA,NA,NA,NA,NA,NA,4,1,1,4,2,2,1,4,2,2,4,2,4,2,2,5,2,4,2,2,2,1,4,1,2,4,4,5,5,2,5,4,5,2,3,5,3,5,5,4,4,4,2,4,2,4,4,2,2,2,2,7,2,2,2,1,2,2,1,6,6,1,2,1,3,6,1,6,3,2,1,1,2,2,1,2,2,1,1,2,4,3,2,4,3,4,3,4,5,3,4,4,5,6,6,6,6,5,7,2,2,2,4,1,1,4,1,2,1,1,1,2,2,2,4,3,3,2,1,1,1,2,1,1,4,4,2,4,2,4,3,4,4,2,2,2,4,2,4,3,4,4,2,1,4,4,2,4,3,4,4,4,2,2,2,2,1,2,4,2,2,2,4,2,5,2,2,2,5,2,2,2,4,4,2,5,2,1,1
"VCU",1993,1,6,1,3,2,1,2,0,2,NA,35.83333333,35.61111111,36.05555556,37.552200317383,94,13.33333333,5,1,2,1,NA,4,2,4,1,4,3,6,6,1,NA,2,3,3,1,5,1,1,NA,1,NA,NA,NA,NA,NA,NA,NA,NA,NA,NA,4,4,2,3,4,4,4,3,3,2,4,5,3,3,2,4,2,2,2,3,2,2,3,3,4,2,2,2,3,2,3,2,2,4,3,2,4,4,4,4,3,2,2,2,2,2,4,4,3,2,5,2,2,4,3,3,3,3,3,3,4,3,4,6,2,5,3,5,3,4,4,2,4,4,3,2,4,3,5,4,4,3,4,4,4,4,4,4,4,2,3,3,6,6,4,5,5,5,5,2,3,2,2,2,3,2,2,3,3,2,2,3,2,3,2,4,6,4,3,3,4,3,2,4,4,2,1,1,3,2,3,5,4,3,4,5,2,5,3,2,3,2,4,4,3,5,3,3,3,3,4,2,2,2,2,2,4,4,3,2,2,4,4,2,4,4,4,4,3,4,4,2,3,4,3,2,2,2,3
"METU",1993,2,7,2,3,2,1,NA,NA,1,16,35.85,35.3,36.4,39.911697387695,64,6,3,2,4,1,NA,4,4,5,NA,3,2,5,5,1,NA,2,8,1,NA,NA,1,2,8,1,NA,NA,NA,NA,NA,NA,NA,NA,NA,NA,4,3,4,4,4,3,3,4,4,2,4,4,4,3,4,5,3,3,2,3,3,3,3,5,4,1,3,3,4,4,3,4,2,2,1,3,4,4,2,4,4,1,1,1,2,1,3,6,4,4,5,4,5,2,6,6,4,4,1,4,5,1,6,1,2,1,2,6,6,4,2,2,3,2,2,2,2,2,5,5,6,1,4,4,3,4,3,3,3,3,3,3,7,5,6,6,6,6,6,4,4,4,4,3,2,4,4,4,4,2,2,2,2,2,3,5,7,1,6,7,5,4,1,1,4,4,2,4,4,3,5,4,4,1,2,4,4,3,2,4,2,4,4,3,4,4,4,4,4,2,3,2,2,3,2,4,4,3,2,4,2,4,4,3,4,4,1,4,3,4,4,4,2,5,4,4,3,3,4
"METU",1993,1,7,2,4,2,1,2,0,1,21,35.85,35.7,36,39.911697387695,70,3,3,2,2,1,NA,4,4,4,1,4,2,8,5,1,NA,2,8,1,NA,NA,1,1,NA,1,NA,NA,NA,NA,NA,NA,NA,NA,NA,NA,2,2,3,5,2,5,2,1,4,1,3,2,3,5,4,3,3,3,4,2,2,3,3,4,4,2,3,4,2,4,4,4,5,2,1,4,4,4,4,4,4,1,5,1,4,1,4,5,2,2,3,6,6,7,5,6,5,4,6,5,5,1,4,1,2,2,2,7,3,3,2,2,5,4,5,3,7,5,2,5,3,2,3,4,4,4,5,5,3,4,4,4,6,6,5,7,7,5,5,4,2,1,2,4,1,1,4,3,2,1,2,4,3,4,4,3,2,2,2,1,1,2,3,3,2,4,1,2,2,4,2,5,5,2,5,5,2,4,4,5,3,4,3,4,3,2,2,4,4,2,2,2,4,3,2,4,5,4,3,3,4,4,3,4,5,2,3,4,2,4,4,4,2,2,3,2,2,3,1
"VCU",1993,2,7,1,3,2,1,4,0,2,NA,35.86111111,35.61111111,36.11111111,NA,87,15,5,1,1,1,NA,2,2,4,1,2,2,4,2,1,NA,2,4,3,1,8,1,1,NA,1,NA,NA,NA,NA,NA,NA,NA,NA,NA,NA,3,3,4,4,3,3,2,3,2,2,3,3,5,4,3,3,2,2,2,2,4,4,2,3,5,1,5,3,4,2,2,2,2,1,2,4,1,1,2,4,2,1,1,1,1,2,2,1,1,1,1,2,1,2,2,2,1,6,1,1,1,2,5,2,2,2,2,2,1,1,1,2,1,6,2,2,2,1,1,6,2,1,2,5,5,5,5,5,5,2,4,4,4,6,5,4,5,5,5,4,5,4,4,2,4,3,4,4,3,2,2,4,1,2,2,5,8,6,7,7,5,1,5,4,5,4,3,1,2,3,3,5,2,1,3,5,4,4,2,2,3,4,5,4,2,5,3,4,4,3,4,4,4,4,4,2,3,5,2,5,2,3,3,4,2,3,4,4,4,4,4,3,5,4,3,2,3,1,4
"SMU",1993,1,4,2,3,2,1,0,0,2,NA,35.9,35.8,36,1.2931060791016,71,26,5,1,2,1,NA,4,4,5,NA,1,NA,6,5,1,NA,2,8,3,1,6,2,1,NA,1,NA,NA,NA,NA,NA,NA,NA,NA,NA,NA,4,4,5,4,2,5,3,2,3,2,4,4,4,2,5,4,2,2,2,2,2,2,2,3,5,2,3,3,4,3,4,4,3,4,4,4,2,2,2,4,2,2,2,2,2,2,4,3,3,4,6,6,5,3,5,2,5,3,6,5,6,5,6,2,3,1,1,3,1,2,2,3,4,3,2,4,2,2,3,3,4,2,4,5,4,4,4,4,4,4,4,4,7,4,5,3,5,5,5,3,4,2,3,2,3,4,2,3,2,3,3,1,1,2,1,2,2,3,2,2,4,4,2,2,4,2,1,4,4,4,4,4,4,2,4,4,4,4,4,4,4,4,4,4,4,4,4,4,4,4,4,4,4,4,4,2,4,4,2,4,2,2,3,4,2,4,2,4,4,4,4,4,4,4,4,4,3,5,2
"VCU",1993,2,7,2,4,2,1,0,0,2,NA,35.94444444,35.55555556,36.33333333,37.552200317383,94,13.33333333,5,1,2,1,NA,2,2,5,NA,8,4,5,5,2,8,2,6,3,1,5,1,1,NA,1,NA,NA,NA,NA,NA,NA,NA,NA,NA,NA,2,1,1,4,2,3,1,2,1,2,4,2,3,4,4,4,3,3,2,1,4,2,2,4,4,2,4,5,5,4,5,4,4,4,4,5,5,5,5,5,3,3,4,4,5,4,5,2,5,3,6,2,6,3,3,6,4,5,1,2,2,6,1,7,1,5,3,5,2,5,1,2,2,3,2,5,3,2,2,4,2,2,4,4,4,5,3,4,4,4,4,4,6,6,5,3,6,6,6,3,3,1,3,1,2,2,2,3,1,2,2,2,2,3,3,5,7,6,3,3,4,4,2,4,5,4,1,4,4,2,4,5,4,1,4,4,4,4,3,2,4,3,4,5,4,4,5,4,3,4,3,3,3,4,2,2,4,4,4,4,2,4,4,5,3,4,3,5,5,4,3,5,2,4,4,5,4,1,4
"Portugal",1993,1,3,1,4,2,1,0,0,2,NA,35.95,35.9,36,38.716705322266,73,13,8,1,2,1,NA,4,4,4,1,3,2,2,8,1,NA,2,3,3,4,4,4,2,7,2,"amigos","familia","trabalho","Futsal","Faculdade",2,3,6,6,4,4,5,3,4,5,5,5,2,4,5,5,3,5,3,3,3,2,3,4,2,2,2,3,3,4,3,2,2,2,2,2,1,1,3,4,2,2,2,3,2,2,3,1,3,3,3,2,3,3,6,3,3,3,5,3,5,6,6,3,3,6,6,3,3,6,6,3,5,5,3,3,6,6,5,2,2,5,2,3,3,2,3,3,4,4,4,4,4,4,4,4,4,5,2,2,2,3,3,2,2,5,3,1,5,2,3,5,5,5,2,1,5,4,5,4,3,3,5,3,4,2,2,3,3,4,4,2,2,2,2,4,4,4,2,4,4,3,3,4,4,4,4,4,4,4,3,3,3,3,4,4,3,3,1,4,3,4,4,3,3,3,3,3,3,3,3,3,4,3,3,3,3,3,3,3,3,1,1,1
"Oslo",1993,2,7,2,4,2,1,NA,NA,2,NA,35.95,36,35.9,59.912704467773,69,-4,4,1,2,1,NA,4,4,5,NA,3,2,8,6,2,1,2,3,3,1,6,2,1,NA,1,NA,NA,NA,NA,NA,NA,NA,NA,NA,NA,3,3,3,4,2,1,1,3,2,2,2,5,3,4,2,4,2,4,2,3,4,2,3,2,5,4,5,4,4,3,4,2,2,2,3,4,4,4,3,4,3,3,2,2,3,2,3,4,4,4,4,4,4,4,5,4,4,5,4,4,4,4,4,6,4,4,4,6,4,4,4,4,4,4,4,4,4,4,5,4,4,5,4,5,5,5,5,5,2,3,5,5,5,6,6,6,6,5,5,3,3,1,2,3,2,3,3,2,4,1,2,1,2,3,1,3,4,5,1,2,2,2,1,5,3,4,3,4,1,2,3,2,4,4,3,4,4,2,2,4,2,2,4,4,5,4,5,3,4,4,3,4,3,3,3,4,2,4,2,3,3,2,3,4,3,3,2,4,4,4,4,4,1,3,4,4,4,2,4
"SMU",1993,2,7,1,3,2,1,0,1,2,NA,35.95,35.5,36.4,1.2931060791016,70,26,5,1,2,1,NA,4,4,5,NA,3,3,2,2,2,2,2,3,1,NA,NA,1,1,NA,1,NA,NA,NA,NA,NA,NA,NA,NA,NA,NA,3,3,3,4,4,4,2,3,3,3,4,5,5,3,3,5,3,3,3,3,3,3,3,4,4,2,3,3,4,3,4,3,4,3,4,4,3,2,3,3,3,2,3,3,2,2,2,7,6,5,5,6,7,6,3,5,2,5,2,3,7,4,4,6,3,3,1,2,1,2,2,3,2,1,1,1,1,1,3,3,3,2,3,4,4,3,3,3,3,3,3,3,6,6,4,4,4,4,4,4,4,3,3,4,4,5,4,3,4,4,3,4,2,3,2,5,6,6,3,3,4,4,3,3,4,2,2,3,3,4,3,4,4,2,3,4,4,4,3,2,3,5,3,4,3,5,4,5,4,3,4,3,2,2,2,2,2,4,4,2,3,4,5,2,4,2,3,3,4,3,4,3,3,2,3,2,2,2,2
"METU",1993,1,7,1,4,2,1,NA,NA,2,NA,36,35.4,36.6,39.911697387695,64,2,3,2,2,1,NA,4,4,4,1,5,2,5,5,1,NA,2,4,1,NA,NA,1,2,2,2,"Eskrim TAKIMI","Bitirme projesi grubu",NA,NA,NA,20,4,NA,NA,NA,4,5,5,5,5,1,3,4,4,4,2,4,4,2,3,3,3,4,2,3,2,2,2,3,3,2,2,1,1,1,1,3,1,1,1,2,4,3,4,4,4,2,1,2,1,1,3,6,3,1,2,4,4,2,1,2,1,5,1,2,2,4,5,3,2,1,2,2,2,2,2,2,2,2,2,4,3,2,1,2,2,1,2,5,5,5,5,5,3,3,5,5,5,5,3,4,3,2,3,2,2,1,2,2,2,1,3,2,2,2,2,1,2,2,2,5,6,3,2,1,1,1,4,2,4,4,2,2,5,5,2,4,4,3,4,4,2,4,2,4,3,4,3,2,4,4,3,4,5,3,4,4,1,1,1,2,5,4,3,3,2,2,4,4,3,3,3,3,2,3,3,3,4,3,4,2,2,3,1
"METU",1993,1,7,2,5,2,1,2,0,2,NA,36,35.7,36.3,39.911697387695,70,3,3,2,2,1,NA,4,4,5,NA,8,2,6,6,2,1,2,8,1,NA,NA,1,1,NA,1,NA,NA,NA,NA,NA,NA,NA,NA,NA,NA,5,5,5,5,5,2,4,5,4,5,5,5,5,1,2,1,1,1,5,1,1,1,1,2,3,1,1,1,2,2,1,1,1,2,1,1,2,2,2,1,2,1,1,1,1,1,2,2,1,1,1,6,2,1,1,2,1,2,2,2,1,1,2,1,1,2,2,2,2,2,1,1,2,2,2,6,2,2,1,1,1,1,2,5,5,5,5,5,5,4,4,4,1,2,3,2,2,2,2,1,2,1,2,1,1,1,1,2,1,2,1,1,5,4,5,3,2,1,1,2,2,2,4,4,2,4,2,1,1,1,1,4,2,2,2,2,2,2,2,2,2,2,2,4,3,1,1,3,3,2,2,2,2,2,1,2,2,5,5,5,1,4,5,2,3,2,2,2,2,4,4,4,2,1,2,4,2,1,1
"Kassel",1993,2,6,1,3,2,1,1,0,2,NA,36,35.6,36.4,51.233306884766,83,0,1,1,1,1,NA,4,2,4,1,7,2,7,6,1,NA,2,8,1,NA,NA,1,1,NA,1,NA,NA,NA,NA,NA,NA,NA,NA,NA,NA,2,3,4,4,2,3,2,2,2,2,3,2,3,4,3,4,3,3,3,3,4,3,3,4,4,3,4,2,4,2,3,1,1,4,2,4,4,3,2,4,3,1,2,2,2,2,3,6,6,6,6,5,5,6,5,6,1,2,4,4,4,6,3,5,2,4,2,4,2,6,2,2,2,2,2,2,3,2,2,6,4,2,3,4,4,4,4,3,2,2,2,2,6,6,6,6,6,5,5,2,2,3,2,4,2,2,2,2,2,3,2,2,2,2,2,5,7,7,5,4,3,6,4,4,4,4,2,2,2,4,2,4,4,3,4,4,3,4,3,2,4,4,3,3,4,5,5,5,3,3,5,3,2,3,2,2,2,5,4,3,2,3,2,4,2,4,4,4,4,4,4,3,2,4,4,3,3,2,4
"VCU",1993,1,7,1,2,2,1,0,0,2,NA,36.02777778,36.16666667,35.88888889,37.552200317383,94,13.33333333,5,1,1,1,NA,4,2,5,NA,3,1,8,8,1,NA,2,8,3,1,5,2,1,NA,2,"fraternity",NA,NA,NA,NA,20,NA,NA,NA,NA,3,2,3,5,2,3,1,2,1,2,3,2,4,2,4,5,3,2,2,2,3,3,4,2,5,4,2,2,4,2,4,2,4,4,1,4,4,4,4,4,4,2,2,2,2,1,4,2,2,1,3,2,2,2,4,7,1,1,2,5,4,1,1,2,1,5,2,5,3,3,2,2,6,2,1,1,1,2,1,5,5,1,2,5,5,4,5,5,4,2,4,2,5,5,6,5,4,3,3,2,4,2,2,2,2,2,2,2,2,2,2,1,1,4,1,4,4,5,1,3,3,2,4,4,4,4,2,2,2,4,4,5,2,1,3,4,2,2,4,4,4,3,3,2,5,4,3,4,4,5,4,4,3,2,4,4,4,5,2,4,4,2,3,5,2,2,4,2,4,4,4,4,2,4,4,4,3,4,4
"SMU",1993,1,5,1,4,2,1,16,0,2,NA,36.05,36,36.1,1.2931060791016,70,27,5,1,2,1,NA,4,4,5,NA,5,5,8,8,1,NA,2,6,1,NA,NA,1,2,4,1,NA,NA,NA,NA,NA,NA,NA,NA,NA,NA,4,4,4,4,2,2,3,3,2,5,4,4,4,2,3,3,1,2,1,2,3,1,2,2,5,2,3,1,4,2,4,4,3,4,2,2,4,1,4,4,4,1,1,1,1,1,4,2,2,1,1,1,1,1,1,1,7,2,1,1,2,1,1,1,1,1,1,1,1,1,1,1,1,1,2,1,1,1,1,1,2,1,1,4,4,4,4,4,4,2,4,3,4,5,6,5,5,5,5,2,2,2,1,1,2,2,2,2,2,1,1,2,1,2,3,4,4,6,3,4,1,5,2,5,5,3,1,2,5,5,2,5,4,4,4,5,2,5,1,2,5,4,2,2,4,4,4,5,4,4,4,4,1,1,3,4,4,4,2,4,1,2,3,4,2,4,1,4,4,4,5,4,2,5,4,4,2,2,4
"METU",1993,2,7,1,4,2,1,8,0,2,NA,36.05,35.7,36.4,39.911697387695,72,8,3,2,2,1,NA,4,4,4,2,8,3,4,4,1,NA,2,5,1,NA,NA,1,2,3,2,"psikoloji toplulu?u","P?MYAP","T?Y?V",NA,NA,2,3,2,NA,NA,4,4,4,5,2,3,2,2,2,4,5,2,4,2,3,3,2,2,3,2,2,2,2,3,4,3,2,3,4,2,4,4,3,2,2,2,2,2,2,2,3,2,2,2,4,2,2,4,2,4,3,7,5,4,5,3,2,5,2,2,2,2,6,2,2,2,2,2,2,2,2,2,2,2,2,1,2,2,2,2,2,2,2,5,5,5,5,5,3,3,4,4,5,5,5,6,6,4,5,2,2,1,2,2,2,2,2,2,2,2,2,2,2,2,2,4,6,6,1,5,5,5,2,2,3,4,2,2,2,3,3,5,5,2,4,4,4,4,2,3,4,4,3,4,4,3,4,5,4,4,5,4,1,1,1,2,4,2,2,2,2,4,3,4,2,4,2,4,3,4,3,4,2,4,3,2,2,2,3
"SMU",1993,1,3,1,4,2,1,2,0,2,NA,36.05,35.9,36.2,NA,79,26,5,1,2,1,NA,4,4,5,NA,3,1,5,5,2,3,2,3,1,NA,NA,1,1,NA,1,NA,NA,NA,NA,NA,NA,NA,NA,NA,NA,4,4,4,4,3,4,3,3,2,4,4,3,4,2,2,3,3,3,3,3,2,2,2,3,3,2,2,3,3,3,3,3,3,4,3,3,3,2,2,3,2,3,3,3,3,3,2,4,4,4,4,4,4,4,4,4,4,6,2,4,4,2,4,4,4,4,4,4,3,4,2,4,4,4,6,3,4,3,4,4,4,4,4,4,4,4,4,4,4,4,4,4,3,4,4,4,3,3,4,2,2,3,2,2,2,3,3,2,2,2,3,2,2,4,3,5,6,4,5,2,5,2,3,3,3,3,3,3,3,3,3,4,2,2,4,4,2,4,2,2,3,3,4,2,4,4,2,4,3,3,4,3,2,3,2,4,2,4,3,3,3,3,4,3,3,3,3,3,3,3,3,3,3,3,3,3,3,3,3
"METU",1993,2,7,2,4,2,1,2,1,2,NA,36.05,35.5,36.6,39.911697387695,71,8,3,2,2,1,NA,4,4,5,NA,7,5,5,5,1,NA,2,5,3,1,2,3,2,3,1,NA,NA,NA,NA,NA,NA,NA,NA,NA,NA,4,5,4,5,2,4,2,1,2,5,4,3,5,2,3,3,3,3,2,3,3,3,3,3,3,2,3,4,4,4,4,4,4,5,2,4,5,4,5,4,4,1,4,4,1,4,5,6,5,4,7,7,6,6,6,6,3,6,5,4,2,2,6,6,6,5,3,5,2,5,4,5,2,2,2,1,3,2,2,3,3,2,2,5,5,4,5,5,4,5,4,4,3,4,2,3,3,2,4,2,2,4,2,1,4,1,4,2,4,4,2,4,4,4,2,3,3,5,1,2,2,2,2,2,4,4,2,4,3,2,4,5,4,1,1,4,4,2,2,2,2,4,4,3,4,4,4,5,5,4,4,4,4,4,4,4,4,3,4,3,1,4,3,5,3,2,2,5,4,5,5,4,1,4,5,2,2,2,2
"VCU",1993,2,7,1,3,2,1,4,0,2,NA,36.05555556,35.72222222,36.38888889,38.811492919922,81,14.44444444,5,1,2,1,NA,4,2,5,NA,2,1,4,6,1,NA,2,6,1,NA,NA,1,1,NA,1,NA,NA,NA,NA,NA,NA,NA,NA,NA,NA,3,2,3,1,2,3,1,2,1,2,3,2,3,3,3,4,3,2,4,4,4,3,4,4,3,3,5,4,4,3,5,4,2,4,2,4,4,3,4,3,2,1,1,2,3,2,4,2,1,3,1,1,5,4,5,3,5,1,1,2,1,5,4,6,7,6,5,7,3,7,6,2,3,3,3,6,5,2,2,4,5,4,6,4,5,4,5,5,5,5,5,5,6,6,7,6,6,6,6,3,4,2,4,2,2,4,2,4,3,2,2,3,2,3,2,4,7,4,5,4,3,3,3,2,4,4,3,1,1,2,4,4,3,2,2,2,4,2,2,4,4,4,4,3,4,4,5,4,4,4,2,3,4,2,1,3,4,5,5,3,1,2,3,4,3,3,4,5,5,5,3,2,4,4,4,3,3,2,5
"VCU",1993,2,6,2,2,2,1,6,0,1,3,36.08333333,36.27777778,35.88888889,37.553802490234,64,10.55555556,5,1,2,1,NA,4,3,5,NA,1,NA,3,3,1,NA,2,3,1,NA,NA,1,1,NA,1,NA,NA,NA,NA,NA,NA,NA,NA,NA,NA,2,3,4,4,3,2,2,2,4,3,3,2,4,3,4,5,3,3,3,3,4,3,3,3,5,2,3,4,4,4,4,2,3,2,4,4,3,4,4,4,4,3,4,4,2,3,4,3,2,3,6,3,3,2,6,2,4,3,5,6,2,4,2,5,2,2,2,3,2,2,2,2,2,4,2,3,2,2,2,5,2,2,6,5,2,5,4,1,2,2,2,2,1,3,2,2,2,2,2,1,1,3,1,1,4,1,2,1,2,1,1,1,1,2,1,2,2,2,2,2,2,2,2,4,4,4,2,2,2,4,4,5,4,2,4,5,5,5,3,5,2,5,5,5,4,5,3,3,1,4,3,2,3,4,3,4,5,4,5,2,2,4,5,4,5,3,5,5,5,4,4,4,1,5,5,1,1,5,3
"METU",1993,1,7,2,3,2,1,NA,NA,2,NA,36.1,35.8,36.4,39.911697387695,62,5,3,2,3,1,NA,4,4,5,NA,4,4,8,6,1,NA,2,8,3,1,6,1,1,NA,1,NA,NA,NA,NA,NA,NA,NA,NA,NA,NA,3,4,5,3,4,2,3,3,5,1,4,5,5,3,2,4,2,1,4,3,2,3,2,3,2,3,2,3,3,4,1,4,1,3,2,2,1,3,1,3,3,1,1,2,4,1,1,5,4,4,5,7,7,5,5,4,2,4,6,5,4,4,5,2,1,3,1,2,1,1,1,1,1,1,2,2,2,1,2,2,2,1,2,5,3,5,5,5,2,2,3,3,5,5,5,5,4,5,5,2,4,1,2,2,2,4,3,3,3,5,1,1,2,4,2,5,3,4,2,2,3,2,5,1,5,5,2,1,5,5,2,5,4,3,4,4,2,4,3,2,3,5,5,3,3,5,4,5,3,4,4,4,1,1,1,3,2,4,5,3,1,4,3,3,3,1,4,5,3,4,5,5,3,3,3,3,3,1,1
"SMU",1993,1,4,1,4,2,1,0,1,2,NA,36.1,36.1,36.1,1.2931060791016,71,26,5,1,2,1,NA,4,4,4,2,2,1,4,4,1,NA,2,4,1,NA,NA,1,1,NA,1,NA,NA,NA,NA,NA,NA,NA,NA,NA,NA,3,3,2,3,2,4,2,3,3,3,4,2,2,3,3,4,3,2,2,2,4,2,2,4,3,2,4,4,4,4,2,4,3,3,3,3,3,4,4,3,4,3,3,4,4,4,3,5,3,5,4,4,4,5,3,4,4,4,5,3,4,3,4,4,5,6,3,4,5,4,4,5,3,3,2,4,4,5,5,3,5,5,3,4,4,4,4,4,4,4,4,4,2,3,4,4,3,5,5,4,4,4,2,4,4,4,3,3,4,3,2,3,3,4,3,3,2,4,2,3,2,3,4,3,4,4,4,3,4,4,4,3,4,3,4,3,4,4,4,4,4,4,3,4,3,3,3,4,4,4,3,4,4,3,3,4,3,4,4,4,3,3,4,4,4,4,4,3,4,3,4,4,4,4,3,4,4,4,4
"SMU",1993,2,7,1,4,2,1,1,0,2,NA,36.1,36.2,36,1.2931060791016,79,26,5,1,2,1,NA,4,4,5,NA,1,NA,6,4,1,NA,2,8,1,NA,NA,3,1,NA,1,NA,NA,NA,NA,NA,NA,NA,NA,NA,NA,4,3,3,3,3,4,2,3,3,3,4,2,3,3,3,3,2,2,2,3,3,2,3,3,3,3,3,4,4,4,4,4,4,4,4,3,4,4,4,4,3,2,2,3,3,2,4,4,6,2,5,2,3,3,5,2,2,4,4,6,4,4,4,5,2,2,2,5,3,4,3,4,2,3,2,3,3,2,4,4,5,3,2,4,4,4,4,4,4,4,4,4,2,5,5,5,5,5,5,3,3,3,2,3,3,3,3,3,3,3,2,4,2,4,2,5,6,6,3,5,3,6,2,4,4,2,2,3,4,4,4,5,4,3,5,4,4,4,2,4,3,4,4,4,4,4,4,4,4,3,4,3,2,2,3,4,3,4,4,3,3,4,4,4,4,4,2,4,4,4,4,4,3,4,4,4,2,3,4
"Tsinghua",1993,1,6,1,2,2,1,0,0,2,0,36.1,35.9,36.3,30.580093383789,78,17,7,3,1,1,0,4,4,4,1,6,2,4,4,1,4,1,4,1,1,5,3,2,3,2,NA,NA,NA,NA,NA,0,0,0,0,0,3,5,3,2,4,5,1,2,2,4,4,1,4,3,3,5,2,3,1,3,4,3,3,4,5,3,2,3,4,4,4,3,4,5,4,5,4,5,5,4,3,3,3,2,4,2,4,6,5,2,5,5,5,5,2,5,6,4,2,6,5,4,5,6,6,4,2,6,2,2,2,5,3,2,3,2,1,2,4,2,4,2,5,2,4,2,3,4,3,4,2,3,5,1,4,4,5,5,7,5,3,4,2,2,3,4,4,4,3,1,3,2,1,4,1,4,3,4,2,2,2,3,1,4,5,4,2,1,3,3,3,3,3,1,3,2,2,2,5,5,3,2,4,5,4,5,3,3,3,4,5,3,2,2,2,3,3,5,5,3,2,3,3,4,3,2,4,3,2,3,3,3,3,4,5,3,3,4,1
"Kassel",1993,2,6,2,3,2,1,48,0,2,NA,36.15,36,36.3,50.017593383789,86,5,1,1,2,1,NA,2,2,5,NA,1,NA,5,5,1,NA,2,8,1,NA,NA,2,1,NA,1,NA,NA,NA,NA,NA,NA,NA,NA,NA,NA,4,2,4,2,4,4,4,4,4,3,4,2,3,4,4,5,3,2,3,3,4,3,3,4,4,2,4,2,2,2,2,2,1,2,2,4,4,3,4,2,2,1,1,1,1,2,2,6,6,6,6,4,7,5,6,5,5,3,2,6,2,6,5,7,3,6,2,6,6,6,6,6,6,6,2,5,4,3,6,2,3,3,3,4,3,3,2,2,2,2,4,3,6,4,3,3,7,6,6,2,4,2,2,4,4,4,2,2,3,2,2,2,2,4,3,4,5,6,5,4,5,4,1,4,1,5,4,2,4,2,4,3,4,1,2,5,5,2,3,4,2,5,3,3,4,4,4,4,3,4,4,2,2,3,3,4,2,4,3,3,2,3,2,4,3,3,2,4,4,3,3,4,2,4,4,3,3,4,3
"Oslo",1993,2,7,2,4,2,1,0,3,2,NA,36.15,35.6,36.7,59.912704467773,70,-2,4,1,2,1,NA,4,2,5,NA,8,2,6,4,1,NA,2,8,3,8,8,2,2,8,2,"Skole","Frivillighetsjobb","Familie","Annen jobb","Andre venner",7,7,2,7,7,3,4,5,5,3,3,3,4,3,2,4,5,4,3,3,4,3,2,3,3,5,2,3,2,5,3,2,2,3,2,2,4,2,3,4,3,3,4,4,4,3,1,3,3,2,2,3,5,2,3,5,7,6,2,5,4,2,3,3,1,2,3,5,3,2,5,2,6,2,3,2,3,3,2,2,2,5,4,3,2,4,2,5,4,4,4,5,5,3,3,4,1,3,3,5,3,2,3,3,4,2,3,3,2,2,2,3,2,3,1,2,2,1,3,1,3,4,2,1,2,3,3,1,1,2,5,4,4,4,2,3,2,4,1,1,4,4,2,4,1,3,2,1,3,5,5,4,3,3,5,3,3,1,1,2,2,1,4,2,2,1,3,2,3,2,2,2,5,3,4,4,4,3,3,3,2,2,4,3
"Oslo",1993,2,7,1,4,2,1,1,1,2,NA,36.15,35.9,36.4,59.912704467773,70,-2,4,1,1,1,NA,4,4,4,2,4,3,7,5,1,NA,2,8,3,1,2,1,1,NA,1,NA,NA,NA,NA,NA,NA,NA,NA,NA,NA,2,3,5,4,2,2,2,3,3,2,4,4,5,2,3,4,2,2,2,2,4,3,2,3,5,2,3,3,4,2,4,3,2,3,4,4,4,3,2,3,3,2,4,2,4,3,2,5,3,3,5,4,6,4,4,3,2,2,5,4,4,2,6,3,2,2,2,4,2,2,2,2,3,2,1,1,2,1,2,1,2,3,2,5,4,4,5,5,4,2,5,5,4,5,5,5,4,4,4,2,2,1,3,2,3,2,2,2,2,2,2,2,2,3,3,5,6,6,2,4,4,5,2,2,2,4,4,4,3,2,4,2,3,1,2,4,4,2,3,3,4,2,3,2,4,4,2,4,3,4,4,4,2,2,3,2,2,4,2,3,2,2,3,4,2,2,2,3,4,4,3,4,2,4,4,4,4,4,4
"SMU",1993,1,6,1,4,2,1,0,0,2,NA,36.15,36.2,36.1,1.2931060791016,71,26,5,1,2,1,NA,4,4,5,NA,2,6,8,5,1,NA,2,8,1,NA,NA,5,1,NA,1,NA,NA,NA,NA,NA,NA,NA,NA,NA,NA,4,4,3,3,4,4,4,3,2,3,4,3,2,3,2,2,2,2,3,3,2,2,3,2,4,3,3,3,4,4,3,3,2,4,4,4,3,2,4,3,3,3,3,3,3,3,2,4,4,4,3,3,3,2,4,3,3,2,4,3,5,3,3,1,3,4,4,2,4,2,4,4,3,6,3,3,3,3,3,4,3,5,4,4,3,4,4,3,3,4,4,4,2,5,4,5,3,3,3,4,4,4,4,4,3,3,3,4,3,1,2,4,3,2,3,2,2,4,2,2,2,3,4,3,4,3,4,3,3,4,4,4,4,3,4,3,3,3,4,4,4,4,3,4,4,3,5,4,5,3,4,4,5,4,4,4,4,5,2,3,2,4,2,2,4,4,4,4,4,4,3,4,4,4,2,4,3,4,4
"METU",1993,2,7,2,2,2,1,2,0,2,NA,36.15,36.3,36,39.911697387695,62,5,3,2,2,1,NA,4,4,4,1,1,NA,2,2,1,NA,2,7,1,NA,NA,1,1,NA,1,NA,NA,NA,NA,NA,NA,NA,NA,NA,NA,4,2,2,3,3,4,1,3,2,1,2,3,3,4,4,4,4,3,3,4,4,4,4,4,4,4,4,4,4,2,4,4,4,4,3,4,4,4,4,4,4,4,4,4,4,4,4,6,5,5,6,6,6,6,6,6,6,6,4,4,6,5,7,6,4,4,4,6,4,6,5,6,3,5,3,3,5,3,5,3,3,2,4,4,2,4,2,2,3,3,4,4,7,6,6,6,7,7,7,2,3,3,2,2,2,4,2,3,3,2,2,4,2,4,2,4,4,7,4,4,4,4,1,1,4,4,2,3,2,3,4,4,4,2,4,4,4,4,3,5,4,4,4,3,4,4,4,5,2,3,3,1,1,4,2,4,2,4,4,4,2,4,4,4,4,4,3,3,3,4,4,4,2,4,4,4,4,1,5
"VCU",1993,2,1,1,3,2,1,0,0,2,NA,36.16666667,36.27777778,36.05555556,37.553802490234,84,13.88888889,5,1,1,1,NA,4,4,4,1,5,3,8,8,1,NA,2,8,1,NA,NA,8,2,3,1,NA,NA,NA,NA,NA,NA,NA,NA,NA,NA,4,4,3,2,4,4,3,1,2,2,4,4,1,2,2,1,2,2,2,1,2,2,2,2,4,2,1,2,1,2,1,1,2,2,1,2,3,2,3,3,2,2,2,2,2,2,2,1,6,2,3,2,2,2,2,3,2,2,2,2,3,5,2,6,2,2,2,2,2,2,2,2,1,2,2,2,2,2,4,2,2,2,2,4,4,4,4,5,4,4,4,4,3,2,3,4,2,2,3,2,2,4,3,2,4,4,2,2,2,2,2,4,3,3,1,5,5,4,2,2,2,2,3,3,4,4,2,2,2,4,2,4,4,5,3,4,2,3,3,2,3,5,2,2,5,5,4,4,4,4,4,4,2,2,4,2,1,1,2,5,4,2,2,4,2,4,3,4,2,3,4,4,4,4,2,4,2,4,2
"METU",1993,2,7,2,4,2,1,6,0,1,7,36.2,36.2,36.2,39.911697387695,71,8,3,2,2,1,NA,2,2,5,NA,3,3,2,2,1,NA,2,4,1,NA,NA,1,1,NA,2,"FUTSAL TAKIMI",NA,NA,NA,NA,5,NA,NA,NA,NA,4,3,2,5,2,4,2,2,3,4,3,4,4,3,3,2,4,3,3,2,2,4,2,4,3,2,3,2,2,1,2,3,3,2,2,2,4,4,4,4,4,2,2,2,2,3,4,3,2,5,4,4,2,2,3,2,2,2,2,4,1,2,3,1,2,3,6,6,7,5,5,6,6,5,3,3,5,2,5,6,6,2,3,4,5,4,4,4,4,3,4,4,4,6,6,5,4,4,4,2,4,1,4,4,3,4,4,4,3,4,2,3,4,4,2,3,5,3,3,2,4,4,2,4,2,5,4,4,2,3,5,4,3,2,2,4,5,2,4,4,2,4,5,5,4,5,5,4,4,4,4,4,1,1,3,3,4,4,2,4,4,3,4,4,2,4,2,3,2,4,2,4,3,4,4,3,4,2,4
"METU",1993,1,5,2,2,2,1,0,0,1,25,36.2,36.2,36.2,39.911697387695,62,5,3,2,2,1,NA,4,4,5,NA,5,3,7,7,1,NA,2,1,1,NA,NA,1,1,NA,1,NA,NA,NA,NA,NA,NA,NA,NA,NA,NA,1,2,1,1,1,3,1,1,1,2,3,1,4,4,4,5,3,3,2,3,4,4,3,5,5,4,3,2,3,1,3,4,2,3,1,2,4,4,4,4,2,1,1,1,1,3,1,6,6,6,6,6,6,6,6,6,6,6,6,4,2,6,5,5,4,5,5,6,5,6,3,6,5,5,3,3,6,2,5,5,5,6,5,3,2,3,2,2,4,5,4,4,7,5,4,5,7,7,7,4,5,3,4,5,4,4,4,4,5,5,3,1,3,1,1,5,4,5,2,4,2,2,2,2,4,4,3,3,2,4,4,4,3,2,5,5,4,3,5,2,2,2,4,3,4,4,4,3,2,2,4,2,2,4,2,5,1,3,2,3,2,4,4,4,4,1,3,3,2,3,2,3,1,4,3,3,4,2,1
"Tsinghua",1993,2,7,2,2,2,1,0,0,2,0,36.2,35.9,36.5,NA,78,17,7,3,2,1,0,4,4,5,0,3,2,4,4,2,2,2,8,2,1,3,1,2,1,2,"¿ÆÑÐÐ­»á","´ó´´ÍÅ¶Ó",NA,NA,NA,4,6,0,0,0,3,4,4,4,4,3,1,3,3,3,4,2,4,2,2,3,2,2,2,3,2,3,3,2,4,3,3,4,4,1,4,2,2,3,3,4,4,4,2,3,2,2,4,2,2,2,4,5,4,4,5,4,4,5,4,4,4,4,4,4,3,4,4,5,4,4,2,4,4,4,4,4,4,4,4,3,4,4,4,4,4,4,4,4,4,4,4,4,4,3,3,4,3,3,3,5,4,4,4,3,3,3,3,3,3,4,2,3,3,4,3,3,2,4,2,4,3,5,3,3,1,3,3,3,4,4,2,3,3,3,3,3,4,2,2,4,4,2,2,3,3,3,3,3,4,3,3,4,3,3,3,3,3,3,3,3,3,3,4,4,2,3,3,3,3,3,3,3,3,3,3,3,3,3,3,3,3,3,3
"Bamberg",1993,2,7,2,3,2,1,0,0,2,NA,36.2,36.1,36.3,48.283294677734,78,6,1,1,2,1,NA,4,4,5,NA,3,3,6,6,1,NA,2,8,1,NA,NA,1,2,1,1,NA,NA,NA,NA,NA,NA,NA,NA,NA,NA,3,3,3,4,2,2,4,4,3,5,4,2,4,3,3,3,3,3,3,2,3,2,3,2,3,2,2,4,4,3,4,3,2,4,2,4,4,3,4,4,4,2,3,3,3,2,4,5,5,5,3,6,5,3,6,5,5,4,4,4,2,5,5,2,3,5,2,5,2,5,5,5,2,3,2,4,2,3,5,5,4,3,3,5,5,4,5,5,4,2,4,4,5,4,5,3,4,5,5,4,4,1,3,2,4,4,4,2,2,2,3,2,1,4,2,4,6,4,4,4,5,3,3,3,2,4,4,3,5,4,3,2,3,1,3,4,4,2,3,4,3,4,3,4,4,4,4,3,3,4,3,4,2,2,2,3,4,5,3,3,2,3,2,2,3,3,2,4,4,3,4,4,2,5,3,4,4,2,4
"METU",1993,1,2,1,4,2,1,0,0,2,NA,36.25,35.5,37,39.911697387695,71,8,3,2,2,1,NA,4,4,4,1,3,1,6,4,1,NA,2,4,1,NA,NA,1,1,NA,1,NA,NA,NA,NA,NA,NA,NA,NA,NA,NA,2,4,2,4,2,3,3,4,1,2,4,2,3,2,3,3,2,3,2,2,2,2,2,4,4,3,2,3,4,4,3,4,3,2,2,4,4,4,4,4,4,4,4,4,4,4,4,6,2,2,4,6,2,2,5,4,2,5,2,2,2,2,3,2,2,2,2,4,3,6,4,2,3,2,2,3,2,2,2,2,2,2,3,5,5,5,5,5,5,4,5,5,6,6,6,6,6,6,6,2,2,2,2,3,4,3,2,2,2,3,4,2,4,2,2,4,7,6,2,2,3,4,3,3,4,4,4,3,3,3,3,3,4,2,2,3,4,3,3,2,3,4,4,4,3,4,4,4,4,4,4,4,2,2,3,2,4,4,3,2,3,4,3,4,3,4,2,4,3,4,4,3,2,3,4,2,3,4,2
"SMU",1993,1,3,1,4,2,2,2,3,2,NA,36.25,36.2,36.3,1.2931060791016,70,27,5,1,2,1,NA,4,4,2,2,3,2,7,7,2,1,2,8,1,NA,NA,2,1,NA,1,NA,NA,NA,NA,NA,NA,NA,NA,NA,NA,4,3,4,4,2,3,2,3,2,4,3,2,3,2,3,3,2,2,2,2,2,2,2,4,5,3,1,3,4,2,4,4,2,5,2,4,4,3,2,2,2,2,2,2,2,3,2,2,3,2,2,7,2,2,3,2,2,2,2,2,6,2,2,3,1,2,1,2,1,2,2,3,1,2,1,2,1,1,2,2,2,2,2,4,4,5,4,4,5,4,4,4,4,5,5,5,4,3,4,2,3,2,2,2,3,2,2,3,2,4,2,4,1,3,2,3,4,3,2,2,2,2,2,2,4,4,1,4,4,4,2,5,3,1,4,5,4,4,2,4,4,4,2,2,5,4,4,4,2,4,4,2,1,2,1,3,1,4,4,1,2,4,4,4,4,4,2,4,4,3,4,4,2,3,4,4,4,2,1
"Tsinghua",1993,1,7,2,3,2,1,3,2,2,0,36.25,36.1,36.4,30.580093383789,86,19,7,3,2,1,0,4,2,5,0,4,1,4,2,1,1,1,2,3,2,1,1,2,1,2,"¸ßÖÐÍ¬Ñ§","ÉçÁª","ÊÒÓÑ","´óÑ§Í¬Ñ§",NA,2,1,3,5,NA,4,4,3,5,4,2,2,4,3,3,3,2,2,2,4,3,2,2,2,2,2,2,2,4,4,2,3,4,4,3,4,4,2,2,4,5,4,4,4,2,2,3,4,4,2,4,3,5,3,2,4,4,2,4,3,2,2,2,3,4,2,2,3,2,3,3,2,2,2,2,5,3,2,3,3,3,3,3,5,2,4,3,3,5,5,5,4,5,4,5,4,5,3,2,2,5,5,5,4,2,1,2,3,2,1,1,4,1,2,1,4,2,1,4,2,3,2,4,2,2,2,2,2,2,3,4,1,4,3,2,5,4,3,2,2,2,5,3,4,4,2,2,4,4,4,3,2,4,3,3,4,4,3,3,3,1,4,4,2,1,4,4,4,4,4,1,4,3,4,4,3,4,2,3,4,3,4,2,2
"METU",1993,2,3,2,3,2,1,0,0,2,NA,36.3,36.3,36.3,39.911697387695,60,9,3,2,2,1,NA,4,4,5,NA,3,3,6,5,1,NA,2,6,3,1,2,1,1,NA,1,NA,NA,NA,NA,NA,NA,NA,NA,NA,NA,3,2,2,2,4,3,1,2,2,2,4,4,4,3,3,3,3,3,2,3,3,2,3,4,3,2,3,2,2,2,2,2,2,2,2,2,2,2,2,2,2,2,2,2,2,2,2,2,2,2,2,3,2,3,5,2,2,3,2,2,1,2,5,1,2,3,5,2,5,5,3,2,5,5,3,3,5,2,3,5,5,3,4,4,3,4,4,4,2,2,3,2,5,5,5,5,6,6,6,2,3,2,2,2,2,2,2,2,2,2,2,2,2,4,2,3,4,3,1,2,2,1,1,3,4,4,4,4,2,2,4,2,2,1,2,2,4,2,4,4,2,2,4,4,2,4,3,4,3,2,2,2,2,4,2,2,4,3,2,4,2,2,2,4,4,2,1,4,4,4,2,4,4,4,2,4,4,2,4
"METU",1993,2,7,1,3,2,1,NA,NA,2,NA,36.3,36.3,36.3,39.911697387695,56,4,3,2,1,1,NA,4,4,4,2,7,5,6,6,1,NA,2,8,1,NA,NA,1,1,NA,2,"Jakuto","Biyogen",NA,NA,NA,4,5,NA,NA,NA,4,4,3,5,4,2,2,2,2,4,5,3,5,3,3,3,2,2,2,3,3,2,3,2,4,3,3,4,3,3,2,2,1,1,1,3,4,4,4,4,4,2,1,1,2,2,4,7,3,2,5,6,5,5,5,4,3,5,1,4,2,4,5,5,1,2,2,4,2,3,2,2,3,2,3,3,2,2,2,3,3,2,3,5,5,5,5,5,4,4,4,4,3,3,3,4,3,3,3,2,2,4,2,1,1,2,2,2,1,1,1,1,2,1,2,5,6,5,2,5,2,5,4,1,4,4,1,3,4,4,1,5,5,2,3,5,5,4,3,2,3,4,4,4,4,4,4,4,4,3,4,4,2,2,3,2,2,5,4,4,1,4,3,4,3,4,3,4,3,4,4,4,3,2,4,2,2,1,4
"SMU",1993,1,6,2,3,2,1,25,0,2,NA,36.3,36.4,36.2,1.2931060791016,70,26,5,1,2,1,NA,4,4,1,NA,3,1,5,3,1,NA,2,8,1,NA,NA,1,1,NA,1,NA,NA,NA,NA,NA,NA,NA,NA,NA,NA,4,4,2,4,4,4,4,3,2,4,4,4,2,3,4,4,2,2,3,2,4,2,2,4,4,2,4,2,4,2,2,2,2,2,2,4,2,2,2,2,2,2,2,2,2,2,2,4,4,4,4,4,4,4,4,4,4,4,4,4,4,4,4,4,4,4,4,4,4,4,4,4,4,4,4,4,4,4,4,4,4,4,4,4,3,4,4,4,4,4,4,4,3,3,3,3,2,2,2,3,3,3,3,2,2,3,3,3,4,2,3,3,2,3,3,2,2,2,2,2,3,2,1,4,5,2,1,1,3,3,4,4,3,1,2,5,5,3,2,1,2,2,4,3,4,3,3,3,2,4,3,3,3,4,3,2,2,3,2,2,2,4,4,4,4,2,2,4,4,3,3,3,4,3,3,3,2,2,2
"SMU",1993,1,4,2,3,2,1,0,0,2,NA,36.3,36.2,36.4,1.2931060791016,71,26,5,1,3,1,NA,4,4,5,NA,6,1,8,5,1,NA,2,8,1,NA,NA,2,1,NA,1,NA,NA,NA,NA,NA,NA,NA,NA,NA,NA,3,5,5,4,4,1,5,1,3,5,5,5,5,2,3,3,1,2,1,1,2,1,1,3,4,2,2,2,4,2,3,2,2,2,3,2,2,2,2,2,2,2,2,2,2,2,2,2,2,2,2,2,2,2,5,6,2,6,2,6,2,2,2,2,2,2,6,2,3,2,2,2,3,6,3,3,6,2,2,3,6,6,3,4,4,4,4,4,5,4,4,4,4,6,5,4,5,4,3,2,2,1,2,1,1,2,2,3,2,2,2,2,2,3,2,5,6,3,2,3,2,2,3,3,4,3,1,5,3,3,4,4,3,3,3,4,4,4,3,3,4,4,5,3,4,4,3,4,4,4,4,4,2,2,2,2,2,2,4,4,2,4,3,3,4,3,4,4,4,4,4,4,4,3,3,3,3,2,3
"Tsinghua",1993,2,7,2,3,2,1,0,0,2,0,36.3,36,36.6,30.580093383789,61,10,7,3,2,1,0,4,4,5,0,5,3,7,4,2,3,2,5,2,1,5,3,2,1,2,"Ö¾Ô¸ÕßÐ­»á",NA,NA,NA,NA,2,NA,NA,NA,NA,3,3,4,4,5,5,1,3,5,4,4,4,3,3,3,4,2,2,2,2,3,3,5,2,4,2,2,2,4,1,5,1,1,3,3,4,4,3,3,4,3,2,2,2,2,2,2,4,4,4,6,6,5,4,6,4,5,3,4,4,4,4,4,6,3,2,2,2,4,3,3,4,3,3,3,3,3,2,5,2,3,2,3,5,5,5,4,5,5,5,5,5,5,2,4,7,6,5,5,2,2,3,3,2,3,4,2,4,2,2,2,3,1,4,2,3,2,4,2,2,2,3,2,4,5,5,1,3,3,3,4,4,4,2,3,4,3,2,3,4,2,2,4,4,4,3,3,5,5,3,4,4,1,1,1,2,4,4,3,2,2,4,2,4,4,3,3,5,3,2,2,2,2,3,4,3,3,4,3
"SMU",1993,1,7,2,5,2,1,1,0,2,NA,36.3,36.2,36.4,1.2931060791016,70,26,5,1,2,1,NA,4,4,5,NA,3,2,4,4,2,1,2,8,1,NA,NA,1,1,NA,1,NA,NA,NA,NA,NA,NA,NA,NA,NA,NA,2,2,2,4,2,2,1,1,2,2,2,2,5,2,2,1,2,2,2,2,2,2,1,1,2,2,2,4,5,4,4,4,4,4,4,4,5,2,5,4,4,2,2,2,1,4,5,6,6,6,3,3,3,3,6,5,5,3,5,5,2,7,3,3,1,3,2,5,5,3,3,2,5,5,3,2,5,2,3,3,3,3,3,4,4,5,5,4,2,2,4,2,4,6,6,6,4,4,4,2,2,1,2,1,2,2,4,4,2,1,1,4,1,4,2,3,3,1,1,2,1,1,1,4,4,4,2,4,4,5,5,4,2,1,4,5,5,4,2,2,2,1,4,4,4,4,4,4,2,2,2,2,4,4,2,1,1,2,1,2,2,2,2,4,1,2,2,2,4,2,2,2,4,2,2,2,2,1,4
"VCU",1993,2,7,1,3,2,1,5,0,2,NA,36.30555556,36.33333333,36.27777778,37.516006469727,88,10,5,1,2,1,NA,4,2,4,2,4,1,8,6,2,1,2,6,3,1,5,5,1,NA,2,"PSP",NA,NA,NA,NA,80,NA,NA,NA,NA,3,3,3,4,3,2,2,2,4,3,4,3,4,2,2,3,3,3,2,3,2,3,3,3,4,2,3,3,4,4,4,4,3,4,3,4,4,4,4,4,3,4,3,4,3,4,4,1,5,2,4,4,2,2,2,3,2,4,1,1,2,1,2,5,1,2,1,6,1,1,2,2,1,6,1,1,1,1,1,4,3,1,1,5,5,5,5,5,4,2,5,5,7,5,5,4,4,4,4,2,1,2,2,2,2,2,2,2,2,2,2,3,2,2,2,4,6,4,5,4,4,1,2,4,4,4,3,2,4,4,3,4,4,2,4,4,4,4,2,4,3,4,5,3,4,4,3,5,4,4,4,4,2,2,2,2,3,4,3,2,2,4,2,3,3,3,4,4,4,4,4,2,4,4,2,2,2,2,2
"VCU",1993,2,6,1,4,2,1,4,0,2,NA,36.33333333,36.5,36.16666667,37.502304077148,81,14.44444444,5,1,2,1,NA,4,3,3,1,3,2,6,5,1,NA,2,3,3,1,8,2,1,NA,1,NA,NA,NA,NA,NA,NA,NA,NA,NA,NA,3,2,4,4,3,3,2,1,2,3,3,2,2,4,4,5,3,3,4,3,4,4,3,4,4,3,4,2,3,2,4,2,2,3,4,3,4,2,4,4,2,2,3,2,2,2,2,5,3,5,4,5,2,2,3,5,2,3,4,4,4,4,2,5,2,4,6,3,6,2,5,3,2,6,3,3,2,3,3,4,2,2,3,4,4,4,4,4,4,3,3,3,2,4,4,3,3,3,3,4,4,3,4,4,3,4,4,3,4,4,3,3,3,3,3,4,3,6,3,2,3,1,2,2,4,4,2,3,2,3,3,5,4,2,4,5,5,3,3,4,3,3,4,4,3,4,2,4,4,3,4,4,2,2,2,1,5,4,4,2,3,4,5,3,2,2,3,3,4,3,4,2,3,4,4,3,2,5,3
"SMU",1993,1,6,2,4,2,1,0,0,2,NA,36.35,36.4,36.3,1.2931060791016,79,26,5,1,2,1,NA,4,4,5,NA,2,2,4,4,2,8,2,8,1,NA,NA,5,2,3,2,"Church group","school project group","Secondry school friends group",NA,NA,7,6,3,NA,NA,2,3,4,5,3,4,3,1,4,4,2,4,4,3,3,3,3,3,3,3,3,3,3,3,3,3,3,3,3,4,2,2,2,3,3,2,4,3,4,3,3,3,1,2,1,2,3,4,5,4,5,4,5,4,5,5,4,6,4,5,4,4,4,4,2,4,4,4,4,4,4,4,4,4,4,4,5,4,4,3,3,3,4,4,4,4,4,4,4,4,4,4,3,3,3,3,3,3,3,3,3,3,3,3,3,3,3,3,3,3,3,3,3,3,3,3,3,4,3,3,2,3,2,4,3,4,3,4,2,3,3,2,2,2,2,2,4,3,4,3,3,4,4,2,4,4,2,3,3,3,4,3,2,2,3,3,2,3,2,3,3,3,2,3,2,3,2,4,4,4,3,3,3,2,2,4,3,4,3
"SMU",1993,1,4,1,2,2,1,0,0,1,5,36.35,36.3,36.4,1.2931060791016,70,26,5,1,2,1,NA,4,2,5,NA,3,1,5,3,1,NA,2,8,1,NA,NA,1,1,NA,1,NA,NA,NA,NA,NA,NA,NA,NA,NA,NA,3,2,3,4,2,3,2,2,2,1,4,2,2,3,3,3,3,2,2,3,4,3,3,4,5,3,4,3,4,3,3,3,2,3,2,4,2,2,3,2,2,2,2,2,2,2,2,4,3,4,3,4,4,4,4,4,3,4,4,4,3,3,3,5,3,5,4,5,4,5,5,4,4,4,4,4,4,4,4,4,5,5,4,5,5,5,5,5,5,5,5,5,3,5,4,4,4,4,4,3,4,2,4,3,3,3,4,4,3,3,3,4,3,4,3,3,3,1,1,1,1,1,3,3,4,3,2,4,4,3,4,4,4,2,3,4,4,3,3,2,2,2,4,3,4,3,3,3,3,3,3,3,3,2,3,2,2,4,4,3,3,4,4,3,4,3,2,3,4,3,2,3,3,3,2,2,2,1,2
"METU",1993,1,7,2,3,2,2,10,0,2,NA,36.35,36.3,36.4,39.911697387695,62,5,3,2,2,1,NA,3,3,5,NA,8,7,7,7,1,NA,2,8,1,NA,NA,1,1,NA,1,NA,NA,NA,NA,NA,NA,NA,NA,NA,NA,3,4,4,3,2,3,3,2,2,3,4,2,2,3,3,4,3,3,3,3,3,3,3,3,3,3,3,4,3,3,3,4,3,4,4,4,3,4,4,3,4,2,3,3,3,3,4,6,5,3,4,5,7,4,5,5,5,3,3,5,5,5,5,2,4,2,3,5,4,1,3,1,4,4,2,2,5,2,3,6,5,2,5,5,4,4,3,4,5,4,4,4,3,6,6,6,5,5,5,4,3,1,4,1,3,4,4,4,3,3,1,1,3,2,1,4,2,4,2,4,2,2,5,4,4,4,2,4,4,3,4,4,4,2,2,4,3,3,3,4,4,4,3,2,4,4,4,4,4,4,4,4,3,3,2,2,3,3,3,3,2,4,3,4,3,4,2,4,2,4,4,4,5,4,2,2,3,2,4
"VCU",1993,1,4,2,2,2,1,12,0,1,2,36.36111111,36.27777778,36.44444444,37.444900512695,81,14.44444444,5,1,1,1,NA,2,2,5,NA,1,NA,2,2,1,NA,2,1,1,NA,NA,1,1,NA,1,NA,NA,NA,NA,NA,NA,NA,NA,NA,NA,3,1,1,2,2,2,3,3,2,4,4,2,1,4,4,5,2,3,3,4,5,3,3,3,5,2,4,4,5,2,5,2,2,4,5,4,1,3,2,2,1,3,4,4,2,4,3,7,6,7,7,7,7,7,6,7,6,7,5,6,5,6,7,7,3,6,5,6,4,6,3,1,5,5,5,5,6,3,2,5,5,2,6,1,1,2,1,1,1,2,1,1,5,7,7,7,4,4,5,2,2,2,3,1,3,2,1,3,2,2,2,2,5,4,4,2,2,2,2,2,3,2,4,4,5,3,1,2,4,4,2,5,3,2,4,4,2,5,2,4,2,5,4,5,2,5,5,3,1,1,2,1,2,4,3,4,2,4,4,2,2,2,4,2,3,2,2,4,4,4,4,2,5,2,2,1,2,1,4
"VCU",1993,2,7,2,3,2,1,14,6,2,NA,36.36111111,36.5,36.22222222,37.552200317383,64,10.55555556,5,1,2,1,NA,4,4,5,NA,4,3,2,2,1,NA,2,4,3,1,8,1,1,NA,1,NA,NA,NA,NA,NA,NA,NA,NA,NA,NA,4,2,2,3,4,2,1,2,2,1,2,2,4,3,3,4,3,3,3,3,4,3,3,3,5,2,4,4,4,4,4,4,4,4,2,4,4,4,4,4,4,4,4,4,2,2,4,7,7,5,7,6,7,7,7,7,2,6,6,6,2,6,6,7,2,2,2,6,2,2,3,2,2,2,2,2,3,2,2,2,6,2,3,4,4,4,4,4,2,2,4,4,3,4,2,2,3,2,3,2,2,1,2,2,1,2,2,2,2,2,1,2,1,3,2,4,5,4,3,2,2,2,4,5,4,4,1,3,1,3,4,5,4,1,5,4,4,4,5,4,1,4,4,2,4,5,4,4,3,4,3,3,3,4,3,2,5,4,3,2,4,4,4,3,4,3,1,2,5,4,4,3,2,5,4,4,4,1,3
"Oslo",1993,1,4,2,4,2,2,1,0,1,3,36.4,36.5,36.3,59.916702270508,70,-7,4,1,2,1,NA,4,4,5,NA,1,NA,3,2,1,NA,1,NA,1,NA,NA,1,1,NA,2,"filmcrew","0","0","0","0",3,0,0,0,0,3,3,4,4,2,5,4,4,5,4,4,3,2,3,2,4,2,2,1,3,5,1,3,2,5,2,3,3,2,1,1,1,1,1,2,4,2,3,2,4,2,1,1,2,2,1,2,4,4,4,4,4,6,4,7,4,4,4,4,4,3,6,4,7,4,4,4,6,4,3,4,2,4,4,4,4,4,4,6,4,4,4,4,5,4,4,5,5,3,2,4,3,6,6,6,6,6,3,4,2,3,1,2,2,2,2,2,1,4,1,2,3,1,1,1,3,5,4,1,1,2,3,2,4,3,5,4,4,2,3,4,2,2,1,3,4,4,2,4,4,2,4,2,1,4,4,2,3,4,3,3,4,3,3,3,4,1,4,2,1,1,1,1,5,2,1,1,4,4,1,5,5,2,3,4,3,4,3,4
"Tsinghua",1993,2,7,1,4,2,1,3,1,2,0,36.4,36.4,36.4,30.580093383789,71,14,7,3,2,1,0,4,4,5,0,4,2,4,4,1,1,2,3,1,1,2,1,2,1,2,"½¡Éí·¿","Ñ§Éú",NA,NA,NA,1,3,NA,NA,NA,4,5,4,4,4,3,5,2,2,4,4,4,4,3,3,2,2,3,2,2,4,3,4,3,4,4,1,2,2,2,2,2,2,2,2,3,4,3,4,3,4,2,2,2,2,2,4,2,2,2,2,4,4,3,6,2,5,3,3,2,2,2,2,3,2,4,4,2,4,2,2,2,2,2,2,3,4,2,2,3,3,4,3,5,5,5,5,5,5,5,5,5,6,2,2,5,5,5,5,2,2,2,2,2,3,2,2,2,2,3,2,3,2,2,2,3,3,2,2,2,2,2,2,2,4,4,2,2,2,2,2,3,2,2,4,2,2,2,2,4,2,2,2,2,3,2,3,4,4,3,4,4,2,2,2,2,2,4,4,3,2,4,4,4,3,2,2,4,2,4,3,4,3,3,3,3,4,4,2
"SMU",1993,2,6,1,3,2,1,0,0,2,NA,36.4,36.3,36.5,1.2931060791016,70,27,5,1,1,1,NA,4,4,5,NA,5,2,5,5,1,NA,2,6,1,NA,NA,1,1,NA,1,NA,NA,NA,NA,NA,NA,NA,NA,NA,NA,3,3,1,4,4,4,2,2,1,1,2,5,4,3,3,4,3,3,2,3,5,4,3,3,4,2,3,2,4,1,5,3,2,1,1,1,1,1,1,1,1,1,1,1,1,1,1,1,1,1,1,1,1,1,1,1,1,1,1,6,1,1,5,1,1,1,1,1,1,1,1,1,1,1,1,1,1,1,1,1,1,1,1,5,5,5,5,5,5,5,5,5,3,3,5,5,4,3,3,3,4,3,4,1,4,4,4,1,3,2,3,4,1,3,2,5,6,6,6,4,2,4,1,5,5,5,3,2,1,4,4,4,5,1,4,5,5,5,1,5,4,4,4,5,4,4,4,5,3,3,5,3,3,4,3,1,1,4,3,2,4,3,5,5,3,1,3,3,5,3,1,3,4,2,4,1,1,1,5
"Tsinghua",1993,1,1,2,4,2,1,1.3,0,2,0,36.4,36.3,36.5,30.580093383789,74,16,7,3,2,1,0,4,4,5,0,4,3,4,4,1,1,2,5,1,1,1,4,2,1,2,NA,NA,NA,NA,NA,NA,NA,NA,NA,NA,4,3,3,5,4,5,2,4,2,3,4,4,3,2,1,1,2,2,2,2,1,4,3,1,5,2,2,3,4,1,3,1,2,2,2,4,4,2,2,2,1,1,1,1,1,1,1,7,4,5,5,7,2,5,5,4,5,2,2,3,5,5,5,5,2,4,2,2,1,1,3,2,2,3,3,2,2,2,4,2,2,2,4,5,4,4,4,5,5,4,4,4,5,4,4,5,5,5,5,1,2,1,2,2,1,2,2,3,2,2,3,3,1,4,2,2,2,3,2,2,2,2,4,4,4,4,1,2,3,3,2,4,3,2,3,5,2,3,1,4,3,2,3,5,4,4,3,4,4,4,4,3,3,2,2,2,4,4,3,4,3,3,3,3,4,3,2,3,4,3,3,3,3,3,4,3,4,3,1
"METU",1993,2,7,1,3,2,1,NA,0,2,NA,36.4,35.8,37,39.911697387695,71,7,3,2,2,1,NA,4,4,4,2,2,1,7,4,1,NA,2,3,1,NA,NA,2,1,NA,1,NA,NA,NA,NA,NA,NA,NA,NA,NA,NA,3,4,1,5,3,2,1,2,2,1,3,4,3,4,3,4,4,4,4,3,3,4,5,3,4,2,4,2,4,4,4,5,1,4,1,5,5,3,5,1,3,1,1,1,1,1,5,7,5,3,5,4,6,3,5,5,3,6,1,2,2,5,5,5,2,1,1,1,1,1,1,1,1,1,1,1,1,1,1,1,1,1,1,5,5,5,5,5,4,1,4,5,3,5,6,6,6,4,5,2,3,1,3,4,2,4,2,1,4,1,3,4,5,2,1,3,2,2,1,2,2,1,2,2,1,5,5,5,5,5,5,1,1,1,1,2,2,1,1,5,1,5,2,2,3,5,5,5,5,5,5,5,1,1,1,1,5,4,5,1,3,4,4,2,5,5,1,2,4,3,3,5,1,3,5,3,5,1,5
"Tsinghua",1993,2,7,2,2,2,1,0,0,2,0,36.4,36.3,36.5,30.666702270508,69,8,7,3,2,1,0,4,4,5,0,5,3,5,3,1,1,2,3,1,1,1,1,2,1,2,NA,NA,NA,NA,NA,NA,NA,NA,NA,NA,3,3,2,4,4,2,2,2,2,4,3,2,2,3,4,3,3,4,3,4,3,4,4,4,2,3,3,2,4,2,4,4,3,4,4,4,4,2,2,4,4,2,4,2,2,4,2,5,3,5,5,6,5,4,5,5,3,3,2,2,2,2,5,5,2,3,2,6,4,3,3,3,5,2,2,2,5,2,5,3,6,6,5,4,3,4,4,4,4,4,4,4,3,2,4,5,4,3,4,4,4,4,4,4,4,4,2,2,4,2,4,4,2,3,2,4,4,5,4,4,2,2,2,4,3,4,3,2,2,2,2,2,2,2,4,4,2,2,4,3,2,2,4,4,2,2,4,4,3,2,4,3,2,3,2,2,4,4,2,2,2,4,4,3,4,3,4,4,4,2,2,2,2,3,4,2,3,2,4
"VCU",1993,2,7,1,4,2,1,NA,0,2,NA,36.44444444,36.44444444,36.44444444,37.195205688477,94,13.33333333,5,1,1,1,NA,4,4,4,2,5,3,6,5,2,5,2,3,3,1,6,1,1,NA,1,NA,NA,NA,NA,NA,NA,NA,NA,NA,NA,4,3,5,5,5,4,4,4,5,5,5,5,5,2,2,2,2,1,1,1,2,2,2,2,4,2,1,2,4,1,5,1,1,4,4,5,4,4,1,4,4,2,2,2,1,1,4,1,1,1,1,1,2,1,1,1,1,7,1,1,1,1,1,1,1,1,1,6,1,1,1,1,1,1,2,2,2,1,1,6,6,1,1,5,5,5,5,5,5,4,5,5,6,4,5,6,6,6,5,1,1,2,1,1,2,1,1,1,1,1,1,1,1,3,1,3,3,7,3,4,4,3,2,2,4,4,1,2,5,4,4,5,5,1,4,5,3,5,5,1,4,4,3,1,5,5,5,2,4,5,2,1,1,4,1,4,4,5,5,1,1,5,4,4,4,4,5,1,4,4,3,3,2,4,4,5,2,1,5
"Oxford",1993,1,6,2,3,1,1,0,0,1,1,36.45,36.3,36.6,51.75,71,1.666666667,5,1,2,1,NA,4,2,5,NA,3,3,8,4,1,NA,1,NA,1,NA,NA,2,2,2,1,NA,NA,NA,NA,NA,NA,NA,NA,NA,NA,2,1,1,2,1,2,1,1,1,2,1,3,4,5,5,2,4,4,4,3,4,3,5,4,4,1,5,2,2,1,4,2,1,2,1,4,2,4,4,4,5,2,1,4,4,1,5,6,5,3,6,7,5,6,3,5,6,1,7,7,6,7,6,5,2,2,2,1,3,6,6,2,5,6,6,2,1,5,7,2,1,1,6,5,5,1,1,4,5,1,2,4,6,7,3,4,6,7,3,5,5,5,4,4,5,5,4,2,2,1,1,4,4,4,1,4,6,7,1,3,2,4,4,4,2,5,5,2,2,3,4,4,5,5,4,4,2,4,2,1,2,5,5,3,4,4,4,5,1,4,2,1,4,3,4,4,2,4,1,4,5,2,1,5,3,2,4,4,5,3,2,4,5,5,2,1,2,1,2
"Tsinghua",1993,1,7,1,3,2,1,12,0,2,0,36.45,36.4,36.5,30.580093383789,72,14,7,3,1,1,0,4,1,4,1,4,3,3,3,1,1,2,3,1,1,1,1,2,1,2,"na","na","na","na","na",NA,NA,NA,NA,NA,4,2,2,3,4,4,2,3,2,4,3,2,2,2,2,2,2,3,4,4,1,4,4,1,2,3,1,4,4,3,4,2,2,2,2,2,4,4,4,4,2,2,2,2,3,2,4,5,5,3,4,7,2,5,3,4,5,5,2,1,2,2,5,3,2,3,2,2,2,1,1,5,1,2,3,2,3,2,4,2,3,2,2,4,4,3,3,4,4,3,4,4,2,2,4,2,2,2,1,2,2,3,3,4,3,2,2,3,2,2,2,2,2,2,2,3,3,5,3,3,1,2,2,4,4,4,2,2,3,2,4,4,2,2,3,2,2,2,4,3,2,2,3,4,3,2,2,4,4,2,3,3,2,2,3,2,2,4,3,4,2,2,4,3,4,2,3,3,2,3,3,2,2,4,4,3,4,2,4
"Tsinghua",1993,1,7,2,3,2,1,1,0,2,0,36.45,36.3,36.6,39.928894042969,21,11,7,3,2,1,0,4,2,5,0,3,2,4,4,1,1,2,5,1,1,1,1,2,1,1,"ÓðÃ«Çò¾ãÀÖ²¿",NA,NA,NA,NA,3,NA,NA,NA,NA,3,4,3,4,4,4,3,4,1,4,5,2,4,5,5,4,2,3,3,4,4,3,4,4,4,2,1,3,4,2,4,4,3,2,4,4,4,4,3,4,2,3,2,2,3,3,2,2,3,3,4,2,5,2,5,3,6,5,3,2,2,3,6,5,2,3,2,2,2,4,4,2,2,2,2,2,6,2,2,2,2,1,4,4,3,5,3,3,4,2,2,3,3,2,2,6,5,2,2,4,3,3,3,4,3,4,3,2,2,2,1,2,2,5,3,3,2,5,2,2,3,2,2,2,5,3,1,2,2,4,3,5,3,2,4,3,3,2,3,4,2,2,4,4,3,4,2,5,3,3,5,3,2,3,2,4,3,4,4,3,2,4,3,4,3,2,2,4,3,4,4,4,2,2,4,3,4,3,3
"Tsinghua",1993,1,7,2,2,2,1,3,5,2,0,36.45,36.1,36.8,30.666702270508,89,16,7,3,2,1,0,4,1,5,0,3,1,1,1,1,1,1,1,1,1,1,1,2,1,1,"¼ÒÍ¥","ÇÞÊÒ","°à¼¶","Na","Na",4,4,40,NA,NA,3,2,3,4,3,3,2,1,3,3,2,4,4,3,2,3,3,3,3,4,3,3,3,2,3,4,3,4,4,4,4,2,2,2,4,4,3,3,3,3,3,3,4,3,4,2,3,4,4,4,4,4,4,4,4,4,4,4,4,4,4,4,4,4,4,4,4,4,4,4,4,4,4,4,4,4,4,4,4,4,4,4,4,4,4,4,4,4,4,4,4,4,7,1,4,6,6,6,5,3,4,3,4,3,3,4,4,3,3,3,3,4,2,3,2,2,2,4,2,2,2,2,1,4,4,4,2,2,3,3,2,4,2,3,2,2,2,2,4,3,2,2,4,4,2,2,2,4,2,2,4,4,4,4,2,2,2,4,2,2,2,4,4,2,4,2,2,4,4,2,2,4,4,2,2,4,2,2,2
"Oxford",1993,2,6,2,3,2,1,1,1,1,1,36.45,36.4,36.5,51.75,71,1.666666667,5,1,2,1,NA,4,4,5,NA,1,NA,8,6,2,6,2,8,1,NA,NA,5,1,NA,2,"Oxford University Dancesport Club - beginners competitive ballroom team","Oxford University Dancesport Club - salsa team",NA,NA,NA,5,12,NA,NA,NA,2,1,2,4,1,2,1,3,2,2,5,2,2,3,4,5,1,2,3,2,3,4,2,4,5,3,2,5,5,4,5,5,3,4,5,4,5,4,5,5,4,4,4,3,5,2,5,3,2,2,6,5,2,3,5,2,2,2,4,2,5,1,2,6,1,3,2,6,2,2,4,4,3,1,2,2,3,2,4,5,5,1,3,5,4,4,5,4,2,2,4,4,6,6,7,6,7,6,6,4,4,1,3,4,3,5,5,2,4,2,2,2,2,2,2,5,6,6,4,4,5,5,1,2,1,5,2,4,3,3,4,5,3,1,3,5,5,1,5,2,4,4,4,4,5,3,5,4,4,3,4,5,2,2,3,4,5,4,5,5,2,1,2,5,1,2,1,5,5,4,3,5,1,3,5,5,4,1,1
"VCU",1993,2,7,1,3,2,1,5,0,2,NA,36.5,36.38888889,36.61111111,37.557693481445,68,10.55555556,5,1,2,1,NA,4,1,5,NA,3,2,1,1,1,NA,2,1,3,8,8,1,1,NA,1,NA,NA,NA,NA,NA,NA,NA,NA,NA,NA,3,3,1,3,3,2,3,2,3,2,4,5,4,3,3,4,2,3,3,3,3,3,3,3,5,3,3,3,4,1,4,1,1,2,1,4,2,3,4,2,3,1,1,2,2,4,4,5,5,5,5,4,4,4,4,6,2,5,4,1,1,5,4,4,1,4,4,6,6,4,4,5,6,6,4,3,6,4,5,5,6,4,3,5,3,4,5,3,2,4,2,1,2,3,3,4,3,2,2,2,4,2,4,2,3,3,3,4,3,3,3,2,1,4,2,1,2,1,2,2,2,2,2,4,5,4,1,3,3,2,3,5,4,3,3,4,3,3,4,3,1,3,4,4,3,4,2,4,2,3,3,3,2,3,2,2,4,2,2,3,3,4,3,3,2,1,3,4,4,2,1,1,3,3,3,1,1,2,1
"Serbia",1993,2,7,1,5,2,1,0,0,2,NA,36.5,36.4,36.6,43.580001831055,47,9,6,1,2,1,NA,4,4,4,1,2,2,4,4,1,NA,2,8,2,7,5,1,1,NA,2,"Joga klub",NA,NA,NA,NA,6,NA,NA,NA,NA,5,5,5,5,5,5,4,5,5,5,5,5,4,2,4,3,2,2,1,2,4,2,1,3,5,1,2,4,4,1,4,1,1,2,1,4,5,4,4,2,4,1,4,1,2,4,4,5,1,1,1,2,2,5,2,NA,1,NA,1,5,1,1,4,5,2,3,1,7,1,1,1,1,1,1,3,1,1,NA,2,7,7,1,1,5,5,5,5,5,5,5,4,4,3,1,2,2,2,2,2,2,4,2,4,1,2,3,2,4,4,4,1,4,2,4,1,1,2,2,1,2,2,2,2,4,2,5,2,1,4,4,4,5,4,1,3,1,4,5,4,5,4,5,5,4,3,3,1,1,1,4,5,5,1,1,2,2,4,2,1,2,2,2,4,4,1,4,2,5,5,5,5,5,3,5,4,2,3,4,4
"SMU",1993,2,2,2,4,2,1,0.5,0,2,NA,36.5,36.6,36.4,1.2931060791016,71,26,5,1,2,1,NA,4,4,5,NA,1,NA,4,2,1,NA,2,8,3,1,2,1,1,NA,1,NA,NA,NA,NA,NA,NA,NA,NA,NA,NA,2,2,2,2,4,3,2,3,2,2,3,4,4,4,3,3,3,3,4,3,3,3,3,3,4,3,4,2,4,4,4,3,3,4,4,4,3,3,3,3,3,3,3,4,3,4,3,5,5,5,5,4,5,5,5,5,4,5,4,4,4,6,5,6,3,5,4,4,4,4,4,4,4,6,4,3,5,3,4,4,4,5,4,4,3,4,4,4,4,4,4,4,3,4,4,4,4,4,4,3,4,3,4,3,2,4,4,4,2,3,2,3,2,4,2,1,3,6,2,2,2,2,4,5,5,2,1,3,2,2,4,5,5,2,4,4,4,4,3,4,3,3,4,4,4,4,3,4,4,3,3,3,3,3,3,2,3,4,3,3,2,3,4,3,4,3,4,3,4,3,3,3,2,4,4,3,3,1,4
"METU",1993,2,7,2,2,2,1,2,0,2,NA,36.5,36.5,36.5,39.911697387695,71,7,3,2,2,1,NA,4,4,5,NA,3,3,6,6,1,NA,2,6,3,8,3,1,2,3,2,"g?n¨¹ll¨¹",NA,NA,NA,NA,5,NA,NA,NA,NA,2,3,3,5,4,4,3,5,1,2,2,4,5,3,4,4,3,2,3,3,4,3,4,5,3,3,4,4,4,3,4,4,4,4,3,4,3,4,3,4,4,3,3,3,2,4,3,6,5,6,6,7,5,2,7,6,3,7,5,5,2,7,4,6,3,6,2,4,6,6,4,4,6,3,3,3,2,2,6,6,6,4,4,4,5,5,5,5,5,5,4,4,6,7,6,5,3,4,6,2,2,1,1,2,4,4,1,3,3,1,2,2,3,4,2,5,6,5,7,4,5,3,4,2,4,1,1,1,3,4,2,5,4,2,4,3,3,4,3,5,4,2,5,3,5,5,3,3,5,3,4,4,3,1,3,4,5,5,5,4,4,4,3,4,3,2,3,4,4,4,3,3,4,4,4,4,2,4,3
"Serbia",1993,2,3,1,4,2,1,2,0,2,NA,36.55,36.5,36.6,44.818603515625,88,9,6,1,2,1,NA,4,4,5,NA,8,5,7,5,1,NA,2,8,3,8,8,2,1,NA,2,"Studentska grupa",NA,NA,NA,NA,2,NA,NA,NA,NA,4,4,4,5,4,2,3,1,4,4,4,3,4,2,4,2,3,2,2,2,3,2,2,3,4,3,3,2,3,3,3,2,2,2,3,2,3,2,2,2,2,2,1,1,2,1,2,3,3,4,4,4,4,2,3,5,2,3,3,4,3,3,5,3,3,4,3,5,3,3,4,4,4,5,3,3,5,5,3,6,4,5,6,4,4,4,5,5,4,4,4,5,6,5,5,4,5,5,5,4,3,3,3,3,3,4,3,3,3,3,3,3,2,2,2,4,6,5,1,4,4,6,3,3,4,4,1,3,3,3,3,5,3,3,4,2,4,3,4,3,4,3,3,3,3,3,3,2,3,4,3,3,3,2,3,3,2,3,3,4,3,3,3,4,3,3,3,4,3,2,3,3,3,4,3,3,3,3,3
"METU",1993,2,7,1,3,2,1,NA,NA,2,NA,36.55,36.3,36.8,NA,72,2,3,2,2,1,NA,2,2,4,1,1,NA,4,4,1,NA,2,8,1,NA,NA,1,2,2,2,"biyogen","akek",NA,NA,NA,5,7,NA,NA,NA,3,2,1,2,1,2,5,1,2,2,2,2,2,4,4,5,3,3,3,4,5,4,4,4,4,3,4,4,4,2,3,2,2,4,2,4,4,4,4,4,4,1,1,1,1,2,4,6,5,3,5,6,2,5,1,5,2,6,2,2,2,2,6,7,1,2,3,4,1,2,2,1,2,1,2,3,3,2,2,1,1,3,4,5,4,5,4,5,5,4,4,4,6,5,6,6,5,5,5,2,3,1,2,2,2,2,2,1,2,1,2,2,3,4,2,4,6,5,1,4,4,1,3,2,4,5,4,2,3,2,3,3,2,2,4,4,4,4,5,4,2,4,3,2,4,4,5,4,3,3,2,2,1,1,1,2,2,3,3,5,2,2,3,4,4,4,2,4,2,4,3,4,2,4,4,3,2,1,5
"Zurich",1993,2,7,1,4,2,1,5,0,2,NA,36.55,36.7,36.4,46.002197265625,68,7,1,1,2,1,NA,2,2,4,1,2,2,7,3,1,NA,2,6,1,NA,NA,1,1,NA,1,NA,NA,NA,NA,NA,NA,NA,NA,NA,NA,3,3,3,4,3,4,3,4,4,3,5,4,5,2,4,2,3,2,3,2,2,2,2,3,5,2,3,4,4,2,4,4,2,2,4,5,5,4,4,4,4,1,1,1,2,2,4,2,2,1,1,1,5,1,2,2,1,2,1,1,1,3,1,3,1,3,1,1,4,1,4,2,3,3,1,2,1,2,5,7,7,3,2,4,4,5,5,5,4,3,5,5,5,7,7,7,7,6,6,2,2,2,2,2,2,2,2,2,2,2,1,2,2,4,2,3,3,3,2,2,2,2,1,2,1,5,5,5,3,2,4,1,3,2,1,3,5,1,5,4,2,4,3,3,3,2,2,3,3,3,3,3,2,2,1,3,4,4,4,2,1,4,4,4,3,2,1,3,3,3,2,2,4,4,2,3,3,1,2
"VCU",1993,2,1,2,3,2,1,8,0,2,NA,36.58333333,36.5,36.66666667,37.557693481445,74,8.888888889,5,1,2,1,NA,2,2,5,NA,4,4,7,8,1,NA,2,5,3,1,6,1,1,NA,1,NA,NA,NA,NA,NA,NA,NA,NA,NA,NA,2,3,5,5,4,3,3,2,4,3,5,5,3,3,3,3,1,2,2,2,2,2,2,3,4,2,4,5,5,3,4,5,4,4,5,5,5,4,4,5,2,3,5,5,3,4,4,4,4,2,5,3,6,5,4,4,4,6,5,5,2,4,5,2,4,5,2,2,3,3,2,4,3,4,3,4,4,3,4,2,3,2,4,4,4,4,5,5,4,2,3,3,1,2,1,1,2,1,1,2,4,1,4,4,2,5,4,3,2,2,2,2,2,3,2,3,5,4,5,3,3,2,3,4,5,4,3,2,5,4,2,2,2,1,4,5,3,4,3,2,3,2,4,3,2,5,4,4,4,4,3,4,2,1,3,2,5,4,2,1,2,5,3,4,5,3,3,5,4,4,3,3,2,4,3,3,3,2,4
"Poland",1993,2,7,1,4,2,1,1,2,2,NA,36.6,36.6,36.6,52.25,70,1,9,1,2,1,NA,4,2,5,1,8,1,5,4,2,1,2,3,6,1,8,1,1,NA,2,"Studenci z roku","Cz?onkowie klubu sportowego",NA,NA,NA,4,5,NA,NA,NA,2,3,4,5,5,5,2,3,5,5,2,2,3,2,3,3,4,5,5,4,3,5,2,2,5,5,2,2,2,2,3,2,4,2,3,2,4,4,4,4,4,2,2,2,3,3,4,2,2,2,2,2,1,2,2,2,2,6,2,2,2,2,6,2,2,5,3,6,3,3,5,3,2,2,3,4,3,3,3,6,6,1,3,2,5,5,5,4,5,3,5,5,4,3,5,4,6,3,3,4,2,2,2,2,2,4,3,2,2,2,2,1,2,2,1,3,4,7,4,4,4,1,2,5,4,4,2,2,3,2,2,5,3,4,4,3,4,3,4,5,2,3,2,4,4,5,5,4,4,4,4,4,2,2,2,3,3,4,4,2,2,4,2,3,3,3,2,4,4,5,5,4,4,3,4,5,3,2,5
"Tsinghua",1993,1,7,1,2,2,1,0,0,2,0,36.6,36.5,36.7,30.580093383789,71,16,7,3,2,1,0,4,1,5,0,8,1,8,5,1,1,2,3,1,1,1,8,2,1,2,NA,NA,NA,NA,NA,NA,NA,NA,NA,NA,2,3,2,3,4,5,1,3,1,2,3,3,4,3,3,3,2,3,2,2,4,4,3,4,4,2,3,2,4,2,3,2,2,2,2,4,4,4,3,4,3,2,2,2,2,2,3,4,3,3,4,5,4,2,3,5,4,4,4,6,3,4,2,6,2,6,2,5,2,2,3,5,3,2,3,2,3,3,3,2,3,3,3,4,4,4,2,3,4,4,2,2,4,1,4,6,5,5,6,2,2,2,2,2,3,2,2,3,2,2,2,2,1,4,2,5,6,4,6,6,6,6,1,4,2,5,2,5,3,2,4,4,2,1,1,3,4,2,2,4,2,2,4,4,4,3,3,4,3,4,4,4,2,2,2,3,5,5,4,4,3,4,4,4,4,4,2,4,2,3,2,4,2,3,2,3,4,3,3
"Zurich",1993,2,7,1,3,2,1,0,0,2,NA,36.6,36.6,36.6,NA,69,0,1,1,1,1,NA,4,4,4,2,8,3,5,3,2,1,2,8,3,1,4,1,1,NA,1,NA,NA,NA,NA,NA,NA,NA,NA,NA,NA,2,2,2,3,3,3,1,1,3,2,3,4,4,4,4,5,3,3,3,4,3,3,4,4,4,4,3,3,4,1,3,3,1,4,3,4,3,1,3,1,3,1,3,1,3,3,3,5,5,5,2,4,5,4,5,4,2,5,2,1,2,2,2,4,3,4,1,2,3,5,4,4,2,6,1,2,1,1,3,2,2,4,3,4,5,4,4,4,4,4,4,4,4,4,4,4,5,5,4,2,2,3,2,3,4,3,2,2,3,5,2,2,2,3,2,5,6,5,3,5,5,5,3,4,4,4,1,2,4,2,2,5,4,4,5,5,2,4,3,4,2,4,4,4,4,3,3,3,4,3,4,4,2,2,4,1,1,3,2,3,2,4,3,4,4,4,3,4,4,4,3,5,2,3,3,5,3,4,4
"Poland",1993,2,7,1,2,2,1,12,5,2,NA,36.6,36.5,36.7,52.233306884766,68,0,9,1,2,1,NA,4,4,4,1,5,2,4,4,1,NA,2,5,6,1,2,1,1,NA,1,NA,NA,NA,NA,NA,NA,NA,NA,NA,NA,1,1,2,2,1,4,1,1,1,1,2,1,2,4,3,5,4,3,3,3,4,3,3,4,4,4,3,4,4,2,4,4,2,4,2,4,4,4,4,4,4,2,2,2,3,3,4,2,4,2,6,4,7,4,3,4,2,6,5,2,2,2,7,6,1,5,2,5,2,2,2,2,2,2,1,2,2,2,2,3,3,2,1,2,2,3,4,3,2,2,3,4,4,4,3,3,7,3,2,2,4,2,3,2,2,2,2,4,3,2,3,1,1,4,1,5,5,4,2,4,4,3,1,5,3,5,3,4,2,2,4,4,4,1,3,2,2,2,4,2,3,5,4,5,4,5,2,4,3,2,4,2,2,3,3,2,4,3,2,5,4,3,3,3,3,2,1,2,4,4,5,5,5,5,5,5,5,1,4
"SMU",1993,1,6,1,3,2,1,6,0,2,NA,36.6,36.3,36.9,1.2931060791016,70,26,5,1,2,1,NA,4,1,2,1,1,NA,3,3,1,NA,2,8,1,NA,NA,1,1,NA,1,NA,NA,NA,NA,NA,NA,NA,NA,NA,NA,3,3,2,3,3,4,2,3,3,3,4,3,4,3,3,3,2,2,2,3,3,2,3,3,4,3,3,4,4,4,5,3,3,4,3,2,2,2,3,2,2,2,2,2,3,2,2,5,3,2,2,4,2,2,3,2,2,2,3,2,2,2,3,6,2,3,2,3,2,2,4,2,3,3,1,2,2,1,3,2,2,3,3,4,4,4,4,4,3,3,3,3,4,4,4,4,3,3,4,2,3,3,3,2,4,3,2,3,2,2,1,3,2,3,1,4,5,3,4,2,5,2,4,4,5,2,1,2,4,4,3,5,5,4,5,5,2,5,3,5,2,3,5,5,4,4,3,4,3,4,3,3,2,2,3,2,2,3,3,4,2,3,3,4,3,2,3,3,4,4,3,4,3,4,3,3,2,2,3
"Oxford",1993,2,7,1,4,2,1,7,4,2,NA,36.6,36.5,36.7,51.75,71,1.666666667,5,1,2,1,NA,4,4,5,NA,8,5,8,8,1,NA,1,NA,1,NA,NA,2,1,NA,2,"hockey club",NA,NA,NA,NA,8,NA,NA,NA,NA,3,4,4,4,2,2,3,4,2,3,4,4,3,2,3,3,2,2,2,2,2,2,3,3,3,2,2,4,4,4,3,3,3,4,3,4,4,3,3,4,3,1,2,2,2,2,3,1,4,2,2,1,2,1,4,4,1,3,1,1,1,2,1,4,1,5,4,3,4,4,1,1,4,4,4,3,5,3,1,6,4,5,5,4,4,4,4,4,4,3,4,4,6,7,7,7,7,7,7,2,2,2,3,2,2,2,2,4,2,2,3,2,2,4,3,4,7,5,2,3,4,4,2,4,4,4,3,2,2,2,2,2,2,1,3,2,2,2,2,1,2,1,4,2,4,4,4,4,3,4,4,3,1,1,1,3,4,4,4,3,1,2,2,4,4,3,3,4,3,3,3,4,3,4,3,4,3,4,2
"Tsinghua",1993,2,7,1,3,2,1,4,0,2,0,36.6,36.45,36.75,30.580093383789,72,5,7,3,2,1,0,4,4,5,0,8,1,8,4,1,1,2,4,1,1,1,1,2,1,2,NA,NA,NA,NA,NA,NA,NA,NA,NA,NA,3,3,2,4,3,3,2,2,3,3,3,2,2,3,4,3,2,3,3,3,2,3,3,3,4,2,2,4,3,3,4,4,3,3,4,4,3,3,4,3,2,2,3,3,2,4,4,4,2,2,2,4,5,2,2,2,2,2,2,2,2,5,2,5,1,3,2,2,2,2,6,2,2,2,1,1,5,2,5,3,2,2,2,4,4,4,4,4,4,4,4,4,2,2,4,5,4,4,4,2,3,2,3,2,4,2,2,3,2,2,2,2,1,1,1,5,4,5,2,3,2,3,2,4,4,4,1,2,2,2,2,5,2,2,3,4,4,2,2,3,2,2,4,4,3,4,3,3,3,3,4,3,2,2,4,2,3,3,2,4,2,3,4,4,4,3,3,4,3,4,4,3,2,3,4,3,4,2,3
"METU",1993,2,7,1,3,2,1,NA,NA,2,NA,36.6,36.6,36.6,39.911697387695,56,4,3,2,2,1,NA,3,1,5,NA,5,1,6,6,1,NA,2,8,3,1,2,1,1,NA,2,NA,NA,NA,NA,NA,NA,NA,NA,NA,NA,4,4,4,2,3,4,3,3,4,5,4,3,4,3,3,3,3,2,2,4,3,3,3,4,5,3,3,4,4,3,4,4,3,4,4,4,4,4,4,4,4,2,2,2,3,3,4,5,5,5,2,5,3,6,4,5,2,5,2,2,1,1,5,6,1,2,2,5,5,2,2,2,2,2,2,2,2,2,4,6,5,2,2,1,1,1,1,1,1,1,1,1,2,3,3,3,3,3,3,2,3,3,3,3,3,4,3,2,3,3,2,2,4,4,2,4,4,2,1,2,2,3,2,4,5,2,1,2,5,5,1,5,5,1,5,5,3,5,3,1,3,4,4,4,3,3,3,4,1,2,4,2,2,5,1,1,1,3,3,4,2,4,4,4,4,3,2,4,4,1,5,4,3,2,4,3,4,4,4
"Chile",1993,2,7,1,4,2,1,1,0,1,NA,36.6,36.5,36.7,33.449996948242,68,13,2,1,1,1,NA,4,4,4,4,5,5,5,5,2,8,2,8,1,NA,NA,2,2,8,1,NA,NA,NA,NA,NA,NA,NA,NA,NA,NA,2,3,3,4,3,4,3,2,5,4,4,3,4,1,3,2,2,3,2,3,1,3,3,2,2,2,1,5,5,3,5,2,2,3,5,4,4,4,4,4,4,2,3,3,4,2,5,1,1,1,2,1,6,1,1,1,1,7,1,1,1,1,2,1,1,1,1,4,1,1,1,1,1,1,1,1,1,1,1,3,4,1,2,5,5,5,5,5,3,1,2,1,3,4,5,5,4,4,4,3,3,1,3,2,2,3,1,2,2,2,5,2,1,1,1,5,6,4,2,5,1,3,2,4,2,5,4,2,5,4,3,4,4,2,2,3,4,2,5,2,4,4,4,2,5,5,5,5,5,5,4,3,1,1,3,3,4,4,2,3,4,2,2,2,3,5,3,5,3,5,5,5,5,4,4,4,3,2,4
"VCU",1993,2,7,1,5,2,1,8,0,2,NA,36.61111111,36.61111111,36.61111111,37.552200317383,81,14.44444444,5,1,2,1,NA,4,4,5,NA,4,2,5,5,1,NA,2,8,3,1,8,7,2,8,2,"LVRS","DEM",NA,NA,NA,7,2,NA,NA,NA,3,2,2,2,2,3,2,3,1,2,4,4,4,2,2,3,4,2,3,3,2,2,3,3,4,2,2,1,3,1,1,1,1,1,2,4,3,3,3,3,1,1,1,1,1,1,1,2,2,2,2,2,5,1,2,7,2,2,2,1,1,2,2,2,1,3,3,6,3,5,4,5,3,6,4,2,3,3,5,3,6,3,4,5,5,4,5,5,5,4,4,3,2,4,3,3,4,4,3,4,4,1,4,4,1,4,2,4,2,2,2,2,3,4,2,5,4,6,4,2,2,4,4,2,4,4,4,2,3,2,2,4,3,2,4,3,2,3,2,2,3,3,4,2,4,4,5,4,4,4,3,3,2,2,3,2,4,4,2,2,2,3,2,2,2,2,2,4,4,4,3,4,3,3,3,4,4,3,4
"VCU",1993,2,6,1,1,2,1,8,0,2,NA,36.61111111,36.72222222,36.5,NA,94,13.33333333,5,1,2,1,NA,4,4,4,1,4,1,3,2,1,NA,2,2,3,1,2,1,1,NA,1,NA,NA,NA,NA,NA,NA,NA,NA,NA,NA,4,3,3,4,4,3,2,3,3,3,3,4,4,5,5,5,3,3,3,3,4,4,3,4,5,2,4,4,4,2,4,4,2,4,3,4,4,4,4,4,4,2,3,4,2,3,4,7,7,7,7,7,7,5,6,7,6,7,6,7,4,3,7,4,6,2,4,4,4,3,3,2,5,5,2,4,4,4,3,3,4,3,5,5,5,5,5,5,5,5,5,5,7,5,5,5,4,3,5,4,4,3,4,2,3,4,4,2,4,2,3,2,2,3,2,1,1,1,1,1,1,1,1,4,4,4,3,4,4,3,4,4,2,1,4,4,4,3,5,3,1,4,5,5,2,5,2,5,4,3,2,2,2,2,2,4,4,3,4,1,1,5,5,1,4,3,2,3,4,3,4,2,4,5,3,3,3,1,5
"VCU",1993,2,6,1,4,2,1,16,0,2,NA,36.63888889,36.94444444,36.33333333,37.580902099609,94,13.33333333,5,1,2,1,NA,4,4,5,NA,8,5,8,8,2,1,2,8,1,NA,NA,3,1,NA,2,"NAACP","Tau Sigma",NA,NA,NA,0,0,NA,NA,NA,5,3,4,4,5,2,5,2,2,4,5,3,3,4,3,5,2,3,2,3,3,3,2,4,4,2,2,2,3,2,4,5,5,4,4,4,4,4,1,2,1,1,2,2,1,1,1,4,2,2,2,2,2,2,2,2,2,6,2,2,2,2,2,2,2,4,5,5,2,5,6,2,2,2,3,5,6,2,2,6,6,1,2,5,5,4,5,4,2,1,1,4,6,3,2,4,2,4,2,1,2,2,4,1,2,2,2,2,2,2,4,1,3,2,4,1,1,4,1,3,4,3,4,4,4,4,1,4,1,4,4,4,2,2,2,2,2,2,2,2,4,3,4,2,4,4,2,2,3,3,4,4,2,2,2,4,4,4,3,2,2,4,5,4,2,2,1,4,2,4,3,3,4,2,2,4,2,2,1
"METU",1993,2,5,1,5,2,1,NA,NA,2,NA,36.65,36.4,36.9,39.911697387695,58,7,3,2,2,1,NA,4,4,4,4,1,NA,2,2,1,NA,2,8,1,NA,NA,1,1,NA,1,NA,NA,NA,NA,NA,NA,NA,NA,NA,NA,3,5,5,4,5,4,5,4,4,4,4,2,4,2,3,3,1,2,1,2,2,2,1,3,3,1,1,1,1,1,1,4,4,2,1,1,4,4,4,2,4,1,1,1,1,3,4,3,2,1,5,6,6,2,1,4,1,4,1,1,2,1,7,1,1,1,1,2,1,1,1,1,1,7,1,1,1,1,1,1,2,2,2,3,2,3,3,3,2,2,2,2,3,5,4,5,4,3,4,1,1,1,2,1,1,2,1,1,2,2,1,1,5,1,1,5,3,3,2,2,2,2,2,3,4,4,2,5,5,3,5,5,3,1,1,4,4,1,1,3,3,5,3,2,5,5,5,5,2,3,5,2,1,4,3,1,5,5,4,5,3,3,5,5,4,4,1,3,1,5,5,5,1,4,3,3,2,4,5
"SMU",1993,2,1,1,3,2,1,3,0,2,NA,36.65,36.7,36.6,1.2931060791016,70,27,5,1,2,1,NA,4,4,5,NA,1,NA,4,4,1,NA,2,6,1,NA,NA,1,2,8,2,"AIESEC",NA,NA,NA,NA,7,NA,NA,NA,NA,4,2,2,3,4,4,2,2,3,3,3,2,2,4,4,3,2,2,3,2,4,2,2,3,4,2,4,2,2,2,2,2,2,2,2,2,2,2,2,2,2,2,2,2,2,2,2,5,5,3,5,3,3,5,4,3,5,3,5,5,5,5,5,5,5,4,3,5,3,5,3,3,3,3,3,3,3,3,5,3,2,3,3,5,5,5,5,5,5,5,5,5,4,2,2,2,4,4,4,4,4,4,2,4,4,4,4,2,4,4,2,4,2,4,2,5,3,5,1,3,3,3,4,2,4,2,2,2,5,4,4,4,4,4,2,4,4,4,4,4,4,4,4,4,3,4,4,4,4,4,4,4,3,3,4,3,3,4,2,4,4,4,2,4,4,4,4,4,4,4,4,4,4,4,4,4,4,2,4
"SMU",1993,1,7,1,4,2,1,0,0,2,NA,36.65,36.8,36.5,1.2931060791016,70,26,5,1,2,1,NA,2,2,5,NA,7,2,8,8,2,8,2,5,1,NA,NA,3,2,3,1,NA,NA,NA,NA,NA,NA,NA,NA,NA,NA,2,4,4,4,3,3,1,2,4,4,5,2,4,3,4,3,1,1,2,4,3,1,3,2,3,3,3,4,1,1,5,1,1,1,1,4,4,1,4,1,4,1,1,1,1,1,4,2,1,2,1,1,1,2,1,2,1,1,1,1,2,1,2,2,1,2,1,1,1,1,1,2,1,2,1,2,1,1,1,1,2,1,1,5,5,5,5,5,5,5,5,5,5,5,5,6,6,6,6,1,1,1,1,1,1,1,1,1,1,1,3,3,2,3,2,4,3,4,3,2,2,2,4,4,4,3,3,3,3,3,3,4,3,2,3,4,4,4,3,4,4,4,3,2,5,5,5,5,5,5,5,5,1,1,1,3,3,5,4,4,1,2,4,1,2,4,2,5,5,5,5,5,1,3,4,4,4,4,4
"METU",1993,1,3,2,3,2,1,10,0,1,20,36.65,36.8,36.5,39.911697387695,49,6,3,2,2,1,NA,4,4,5,NA,8,3,4,3,1,NA,2,8,1,NA,NA,1,1,NA,1,NA,NA,NA,NA,NA,NA,NA,NA,NA,NA,3,4,5,3,4,4,4,5,2,4,3,3,4,2,3,5,2,2,2,2,2,2,2,5,3,2,3,2,2,2,2,4,2,3,1,2,4,3,4,3,2,1,1,2,4,3,2,5,4,5,5,6,4,4,5,3,5,2,5,6,5,4,4,5,4,5,3,5,5,5,4,5,4,3,3,6,3,3,5,3,3,3,4,4,4,4,5,4,5,3,4,3,7,6,7,6,7,5,6,4,4,4,3,4,3,4,3,3,4,3,1,4,2,4,3,5,6,5,6,4,5,5,3,2,4,4,3,2,4,3,4,4,5,2,4,4,2,4,3,4,3,4,4,2,4,1,3,4,4,3,2,4,5,3,3,2,4,3,4,3,2,3,2,5,4,2,3,4,3,4,2,3,3,4,3,4,4,2,4
"Zurich",1993,2,7,1,4,2,1,0,8,2,NA,36.65,36.6,36.7,NA,76,-1,1,1,2,1,NA,4,2,4,1,7,1,6,6,1,NA,2,8,3,1,8,1,1,NA,1,NA,NA,NA,NA,NA,NA,NA,NA,NA,NA,3,2,4,5,3,2,2,4,2,3,4,4,4,2,2,3,2,2,2,2,3,2,2,2,4,1,3,4,4,2,4,2,2,4,2,2,5,4,4,4,4,2,2,2,2,4,4,3,2,2,5,3,1,5,5,2,2,3,5,1,2,3,3,2,5,5,2,3,2,2,2,1,2,6,1,1,2,2,1,3,2,2,5,5,4,5,5,4,5,2,5,3,7,5,6,6,7,6,6,2,2,2,2,4,3,4,2,2,2,2,2,2,2,4,4,5,7,5,6,2,3,5,2,5,2,4,2,2,4,2,2,4,3,1,4,5,5,3,2,4,3,4,4,3,4,5,3,4,4,4,5,4,3,2,3,2,4,3,4,2,1,4,2,4,4,4,2,4,4,2,4,2,4,4,4,3,4,2,5
"SMU",1993,2,7,1,3,2,1,0,0,2,NA,36.65,36.5,36.8,1.2931060791016,70,26,5,1,2,1,NA,4,4,5,NA,1,NA,5,1,1,NA,2,8,3,1,3,1,1,NA,1,NA,NA,NA,NA,NA,NA,NA,NA,NA,NA,2,3,3,4,4,3,2,3,4,3,3,4,4,3,4,3,2,2,3,2,3,3,2,4,5,3,3,4,4,4,4,4,3,3,4,4,3,3,3,4,3,3,4,4,4,4,3,3,3,3,3,4,4,3,3,2,3,3,3,3,3,3,5,3,3,3,3,3,3,3,3,3,3,3,3,4,5,3,3,3,3,3,3,5,5,5,5,5,5,5,5,5,3,5,5,5,5,4,4,2,3,2,3,2,3,4,2,2,2,2,3,2,2,3,2,5,4,4,4,4,4,3,3,3,4,2,1,4,3,2,2,5,3,2,4,4,4,4,3,3,4,4,4,3,3,4,4,4,4,3,4,4,2,2,3,2,2,3,4,2,2,2,2,4,4,4,2,3,4,4,3,3,2,3,3,3,3,2,4
"VCU",1993,2,7,1,4,2,1,2,0,2,NA,36.69444444,36.83333333,36.55555556,37.467697143555,64,10.55555556,5,1,1,1,NA,4,4,2,2,4,4,3,3,1,NA,2,6,3,1,8,3,1,NA,1,NA,NA,NA,NA,NA,NA,NA,NA,NA,NA,2,3,4,3,4,5,1,3,2,4,5,4,4,2,2,2,2,2,1,2,2,2,2,1,5,2,3,2,4,2,3,2,2,3,2,3,4,4,4,4,4,1,2,1,2,2,3,1,1,1,1,1,2,1,1,1,1,4,1,1,1,1,1,1,1,1,1,1,1,1,1,1,1,1,1,1,1,1,1,1,1,1,1,5,5,5,5,5,5,3,5,5,5,4,4,4,3,3,3,2,2,1,2,2,2,2,2,2,2,1,3,3,1,3,2,5,7,6,5,5,5,5,1,3,2,4,2,3,3,4,3,5,2,1,1,2,3,2,2,3,4,4,3,3,4,5,5,5,3,4,5,4,2,4,2,4,2,4,4,2,2,4,2,4,2,4,4,4,5,4,4,4,2,4,4,5,5,2,4
"SMU",1993,1,3,1,4,2,1,1,0,2,NA,36.7,36.7,36.7,1.2931060791016,70,26,5,1,2,1,NA,4,4,4,1,1,NA,6,6,2,1,2,6,1,NA,NA,1,1,NA,1,NA,NA,NA,NA,NA,NA,NA,NA,NA,NA,3,3,2,5,3,4,4,3,2,4,4,3,4,3,3,3,3,3,3,3,3,3,3,3,3,3,3,1,2,2,2,2,2,2,2,1,2,2,2,2,2,2,2,2,2,2,2,6,4,3,5,4,4,3,4,4,3,4,3,6,5,5,4,3,5,4,3,6,2,3,5,2,5,4,3,4,3,3,4,3,4,2,3,5,4,5,5,5,5,5,5,5,2,5,5,5,2,2,3,2,2,1,3,1,2,2,2,2,2,2,3,3,3,2,3,3,3,3,1,1,1,2,4,4,4,3,2,2,4,3,3,5,4,4,3,3,2,4,2,2,3,3,5,3,4,4,3,4,3,3,3,3,3,3,3,3,3,3,3,3,3,3,3,3,3,3,3,3,3,3,3,3,3,3,2,2,2,2,2
"SMU",1993,1,5,1,3,2,1,0,0,1,2,36.7,36.6,36.8,1.2931060791016,71,26,5,1,2,1,NA,4,4,5,NA,8,1,5,2,2,1,2,8,1,NA,NA,1,1,NA,2,"BONDUE",NA,NA,NA,NA,15,NA,NA,NA,NA,4,4,2,3,2,1,1,2,1,1,4,2,3,3,4,3,3,2,1,2,2,2,3,2,5,2,3,4,4,2,4,3,1,1,2,2,4,4,4,2,4,1,1,2,1,2,3,3,2,1,1,4,1,2,1,1,1,1,2,2,2,1,4,2,1,1,1,2,1,1,1,4,1,1,2,2,2,1,1,5,3,1,3,5,5,5,4,4,5,5,5,5,6,7,5,7,7,2,5,1,2,2,2,2,1,1,2,1,2,1,2,2,2,3,4,5,7,3,3,2,6,5,5,4,5,5,1,5,1,5,2,5,2,2,5,5,2,5,4,1,4,4,4,2,5,4,4,5,3,4,4,3,2,2,2,2,1,4,4,4,2,4,4,4,3,2,2,2,4,4,4,4,3,3,2,3,4,2,3
"Oxford",1993,2,7,2,3,2,1,0,0,2,NA,36.7,36.6,36.8,51.75,74,2.777777778,5,1,2,1,NA,4,4,5,NA,4,3,8,6,2,6,2,8,1,NA,NA,2,2,1,2,"Christian Union","Church Small Group",NA,NA,NA,5,4,NA,NA,NA,2,1,2,3,2,2,2,3,2,3,4,1,2,3,3,4,3,2,3,2,3,3,2,3,4,2,4,3,4,3,4,3,2,2,3,4,4,3,4,3,2,2,4,2,4,3,3,5,6,5,6,6,5,6,6,4,4,5,3,4,2,6,4,6,3,4,4,4,4,5,2,3,4,3,3,2,4,3,4,4,2,2,3,4,4,4,5,5,3,3,4,4,5,6,5,5,6,5,5,3,3,2,3,2,2,2,2,3,2,3,2,2,2,3,2,4,4,5,4,4,4,2,1,2,2,5,4,4,4,3,4,2,2,1,3,3,4,2,4,2,4,3,4,4,4,4,4,4,4,3,2,2,3,3,2,4,4,3,4,3,4,4,2,4,3,3,2,4,4,3,3,4,2,4,4,4,4,4,2
"Bamberg",1993,2,7,1,4,2,1,2,0,2,NA,36.7,36.8,36.6,49.437103271484,67,5,1,1,1,1,NA,4,4,4,2,8,6,6,5,2,1,2,5,1,NA,NA,1,1,NA,1,NA,NA,NA,NA,NA,NA,NA,NA,NA,NA,2,3,3,4,2,3,1,2,2,4,3,4,2,2,3,2,2,2,2,2,2,2,1,2,4,2,2,4,4,3,3,2,2,4,2,4,4,4,2,5,2,2,4,4,2,2,2,5,1,1,2,1,3,5,4,2,1,2,1,2,2,1,1,1,1,1,1,3,1,1,1,1,1,1,1,1,1,1,1,3,2,1,1,4,5,5,5,4,4,2,4,4,4,3,3,4,3,3,3,2,2,1,2,1,3,4,2,2,2,1,2,2,2,3,1,4,6,5,2,3,4,6,1,2,2,4,3,5,3,3,3,4,4,1,1,4,2,1,4,2,4,4,4,4,3,5,3,5,3,2,5,2,1,2,1,4,4,5,3,1,2,4,2,3,4,4,1,4,5,5,4,3,1,5,5,4,3,2,4
"METU",1993,2,7,2,4,2,1,NA,NA,2,NA,36.7,36.8,36.6,39.911697387695,70,3,3,2,4,1,NA,4,4,5,NA,6,1,6,6,1,NA,2,8,1,NA,NA,1,1,NA,1,NA,NA,NA,NA,NA,NA,NA,NA,NA,NA,2,5,3,4,3,2,2,1,3,2,4,3,3,3,3,4,3,3,3,3,3,4,3,3,4,3,4,4,4,4,4,2,2,4,2,4,4,4,4,4,4,1,1,1,2,3,3,5,5,3,3,6,5,2,5,5,2,5,2,6,2,1,6,1,2,3,2,5,2,2,2,5,3,2,3,3,5,2,5,2,5,2,2,5,4,4,4,5,3,2,4,2,6,6,6,5,6,3,3,2,2,2,2,2,2,3,2,4,2,2,2,3,2,1,2,4,5,6,3,4,5,5,1,1,2,4,4,4,4,3,4,4,4,5,2,4,4,2,4,4,4,4,3,4,4,4,4,4,4,4,4,4,2,3,2,2,5,3,2,3,2,2,2,4,2,2,2,3,4,4,3,4,1,4,4,4,2,4,1
"Oslo",1993,2,7,1,NA,2,1,1,0,2,NA,36.7,36.7,36.7,59.912704467773,82,-22,4,1,1,1,NA,4,2,4,1,1,NA,4,4,1,NA,2,5,3,4,4,1,1,NA,1,NA,NA,NA,NA,NA,NA,NA,NA,NA,NA,4,4,3,5,4,4,4,4,5,4,4,5,4,2,3,3,2,2,3,2,2,2,2,3,4,2,2,4,3,2,5,4,4,4,3,5,5,4,4,4,4,4,3,4,3,3,4,6,5,5,5,6,5,3,2,3,3,5,6,1,5,1,6,4,5,2,2,4,3,2,2,2,3,2,2,3,2,2,3,2,3,1,4,5,4,3,5,5,5,5,5,5,4,5,4,4,5,5,4,1,1,1,2,1,1,1,3,1,1,1,2,1,2,1,2,4,6,6,5,5,5,5,2,4,2,4,2,4,4,2,2,4,4,1,3,4,4,3,4,4,2,2,2,2,4,4,2,4,4,4,4,2,2,2,2,2,5,4,4,1,2,2,3,2,4,3,2,4,2,2,4,4,2,2,4,2,2,2,4
"Tsinghua",1993,2,5,2,3,2,1,4,0,2,0,36.75,36.8,36.7,39.928894042969,22,8,7,3,2,1,0,4,4,5,0,7,2,8,6,1,1,2,8,1,1,1,4,2,1,1,"ÑÐ»á",NA,NA,NA,NA,7,NA,NA,NA,NA,2,4,5,3,2,2,4,4,3,4,4,3,5,2,4,4,2,2,2,2,2,3,2,2,4,2,2,4,2,2,4,2,2,4,2,3,4,1,2,2,1,1,1,1,4,1,4,5,2,2,2,5,2,1,2,3,4,3,2,2,2,2,2,5,2,3,3,3,2,2,2,2,3,3,3,3,3,3,3,3,2,3,4,5,5,5,4,5,4,5,5,5,7,1,2,7,7,7,7,2,2,2,2,2,1,2,2,3,2,2,3,4,2,2,2,5,8,7,2,3,1,6,1,2,3,4,2,4,2,2,4,5,2,2,1,4,4,1,2,4,4,4,3,4,4,4,4,4,3,4,5,4,2,2,2,4,5,5,2,2,1,2,2,4,3,4,1,4,2,2,2,3,2,4,3,4,3,2,5
"SMU",1993,1,6,1,3,2,1,1,0,2,NA,36.8,37.2,36.4,1.2931060791016,70,27,5,1,2,1,NA,4,4,5,NA,1,NA,5,5,1,NA,2,6,1,NA,NA,1,1,NA,1,NA,NA,NA,NA,NA,NA,NA,NA,NA,NA,3,3,2,2,3,4,3,3,2,3,4,2,2,2,2,2,3,3,3,3,2,4,3,3,3,3,2,3,2,2,3,2,2,2,3,3,2,2,2,2,2,2,2,2,2,2,2,4,4,4,4,4,4,4,4,4,4,4,4,4,4,4,4,4,4,4,4,4,4,4,4,4,4,4,3,4,4,4,4,4,3,4,4,3,1,3,1,1,1,1,1,1,3,4,4,4,4,3,3,2,3,2,4,2,2,2,3,3,2,2,2,2,3,4,4,1,2,3,2,2,2,2,3,3,4,2,2,3,3,3,3,3,3,2,4,4,4,4,2,2,3,3,4,4,4,4,3,3,1,3,3,1,3,5,3,2,2,2,4,4,3,4,4,4,3,3,3,3,4,3,3,3,3,3,3,2,2,2,2
"METU",1993,2,3,2,4,2,1,NA,NA,1,10,36.8,36.7,36.9,39.911697387695,49,6,3,2,2,1,NA,4,4,5,NA,4,1,8,7,1,NA,2,8,1,NA,NA,3,2,4,1,NA,NA,NA,NA,NA,NA,NA,NA,NA,NA,3,2,3,4,2,3,1,2,1,3,3,2,3,3,3,3,2,3,2,3,3,2,2,3,4,3,4,3,3,4,3,4,2,3,3,2,4,2,4,3,3,2,2,2,2,2,3,7,5,2,5,7,5,6,4,6,2,5,1,4,2,2,6,2,2,3,2,4,2,2,2,1,2,2,2,2,4,3,2,2,2,1,3,4,3,4,5,4,4,4,3,4,5,7,6,6,5,5,6,2,2,2,3,3,3,4,4,4,3,2,2,3,4,4,4,4,7,7,4,5,6,6,4,3,4,4,2,2,3,3,3,5,4,2,4,5,5,5,3,4,4,4,4,2,5,5,5,4,5,5,5,5,2,2,1,2,3,4,3,5,4,2,3,5,1,5,3,5,2,5,5,5,3,3,3,3,2,2,4
"SMU",1993,2,4,2,2,2,1,1,2,2,NA,36.8,36.6,37,1.2931060791016,70,26,5,1,2,1,NA,4,4,5,NA,3,3,4,3,2,1,2,5,1,NA,NA,3,1,NA,1,NA,NA,NA,NA,NA,NA,NA,NA,NA,NA,3,2,2,2,3,3,2,3,2,3,3,3,2,3,3,3,3,3,3,3,3,3,3,3,3,3,4,4,4,3,4,3,4,3,4,4,4,4,4,4,4,3,3,3,3,4,4,5,5,5,5,5,5,5,5,5,5,5,5,5,5,5,5,5,5,3,3,5,5,4,5,5,5,5,5,5,5,3,5,5,3,3,3,4,4,4,4,4,4,4,4,4,6,5,5,5,5,5,4,4,2,2,2,2,2,2,4,2,4,2,2,4,2,2,4,3,3,4,2,2,2,2,3,3,4,4,1,3,3,3,4,4,2,2,4,4,4,2,2,2,4,4,4,2,4,2,2,4,3,4,4,4,4,4,3,3,2,2,4,2,2,4,2,4,4,4,2,2,4,4,4,4,2,4,4,4,4,3,4
"SMU",1993,1,6,2,4,2,1,6,0,2,NA,36.85,36.8,36.9,1.2931060791016,71,26,5,1,2,1,NA,4,4,5,NA,1,NA,6,8,1,NA,2,8,1,NA,NA,2,1,NA,2,"Archery Club",NA,NA,NA,NA,4,NA,NA,NA,NA,3,3,3,2,2,3,1,4,2,4,4,3,2,3,3,2,2,4,2,3,2,3,4,2,4,2,2,2,4,1,2,2,3,1,2,4,2,2,3,4,2,2,1,1,1,2,2,5,5,5,6,6,6,5,6,5,4,5,6,3,6,5,5,6,3,3,2,5,2,3,3,3,5,5,2,2,3,2,3,4,5,3,4,5,4,4,5,4,2,2,4,3,3,6,5,7,5,5,5,2,4,2,2,3,2,2,3,4,3,2,2,2,2,3,2,3,3,4,1,2,3,3,4,4,5,2,1,2,4,2,1,5,4,4,5,5,2,4,2,4,1,4,4,5,4,5,2,5,3,2,4,3,2,1,2,4,4,5,5,2,1,2,4,2,4,3,4,4,3,4,4,3,2,5,4,4,2,1,4
"Tsinghua",1993,2,6,2,2,2,1,2,0,2,0,36.85,36.8,36.9,30.580093383789,82,17,7,3,2,1,0,4,1,5,0,8,1,4,4,1,1,2,3,1,1,1,1,2,1,2,NA,NA,NA,NA,NA,0,0,0,0,0,1,5,3,3,4,3,1,1,1,4,2,3,4,3,2,2,2,4,2,3,3,2,4,1,3,4,1,3,5,3,4,3,1,1,2,5,1,1,3,1,1,1,1,1,1,4,1,6,4,2,2,4,2,4,4,5,1,4,4,4,5,1,2,6,2,2,2,2,3,2,2,4,2,2,3,4,2,6,4,2,4,1,4,5,4,4,4,4,3,3,4,5,3,1,4,7,6,4,4,1,1,2,2,1,2,3,1,3,1,1,2,2,2,4,3,3,3,4,2,3,2,4,1,4,5,5,1,4,5,3,4,3,4,1,2,4,4,2,3,4,4,4,4,3,3,4,4,4,3,3,4,4,3,2,2,2,2,2,2,3,2,4,2,4,4,4,1,3,2,4,4,4,2,2,2,3,4,2,4
"SMU",1993,1,6,2,4,2,1,0,0,2,NA,36.85,36.7,37,1.2931060791016,79,26,5,1,2,1,NA,4,4,5,NA,8,3,5,1,1,NA,2,8,1,NA,NA,1,2,5,1,NA,NA,NA,NA,NA,NA,NA,NA,NA,NA,2,2,4,4,2,3,1,1,1,3,3,4,4,3,4,4,2,2,4,3,3,4,2,3,4,2,4,4,4,4,4,4,5,5,2,3,4,4,5,5,2,3,4,3,2,2,4,2,2,2,1,2,2,1,2,3,2,2,1,7,2,2,2,5,2,5,3,5,6,1,2,2,2,3,3,3,2,3,2,2,3,3,6,5,5,4,5,5,5,5,5,5,6,5,5,7,6,2,2,4,3,3,4,4,3,4,4,2,3,3,2,2,2,4,2,3,4,6,2,4,2,1,2,5,5,3,1,2,4,2,4,4,4,3,4,3,2,5,1,3,2,2,3,4,4,4,4,3,4,4,3,4,3,4,2,2,1,1,2,4,4,2,3,4,3,2,4,4,4,2,2,3,4,4,2,3,4,1,2
"Poland",1993,1,3,2,3,2,1,4,0,2,NA,36.9,36.8,37,54.583297729492,81,-3,9,1,2,1,NA,4,4,5,1,7,1,4,4,1,NA,2,8,6,4,5,1,1,NA,1,NA,NA,NA,NA,NA,NA,NA,NA,NA,NA,4,2,1,5,4,4,1,1,2,2,3,4,4,4,3,5,1,2,2,3,4,3,2,4,4,3,3,1,2,2,1,4,1,2,2,2,4,5,4,4,4,2,2,2,2,2,4,7,5,6,5,7,6,7,7,6,3,1,3,4,6,7,6,6,2,2,3,2,2,2,1,2,3,2,2,1,2,2,1,3,2,1,1,3,4,2,2,3,4,3,4,4,7,4,3,2,5,5,5,2,3,4,4,4,3,4,3,2,3,2,2,2,3,3,2,5,7,4,2,2,6,6,2,4,2,4,3,2,2,2,2,4,2,4,2,4,4,2,4,2,2,4,2,4,4,4,3,5,2,2,5,2,2,3,1,2,1,3,4,4,2,3,4,4,4,1,1,3,4,4,4,4,4,4,5,3,3,4,2
"Oxford",1993,2,2,2,2,2,1,7,1,2,NA,36.9,37,36.8,51.75,74,2.777777778,5,1,2,1,NA,4,4,5,NA,4,3,4,4,1,NA,2,5,1,NA,NA,3,2,5,1,NA,NA,NA,NA,NA,NA,NA,NA,NA,NA,4,2,2,2,2,4,2,4,2,2,4,2,2,2,3,3,3,4,3,3,3,4,3,3,2,2,4,4,4,4,4,4,4,4,4,4,4,4,4,4,4,4,4,4,4,4,4,3,3,3,2,3,5,4,4,5,2,5,3,6,2,2,3,2,3,5,4,3,6,3,3,4,4,2,3,2,3,2,3,3,3,3,1,5,5,5,5,5,5,5,5,5,6,6,6,6,6,6,6,2,2,2,3,2,2,2,2,3,2,2,4,2,2,2,4,4,5,4,2,2,2,5,4,4,4,4,1,4,4,3,3,4,3,2,4,4,4,4,4,4,4,4,4,4,4,4,4,4,4,4,4,4,4,4,4,4,4,4,4,4,4,4,4,4,4,4,4,4,4,4,4,4,4,4,4,4,5,4,4
"Poland",1993,2,7,1,4,2,1,24,0,2,NA,36.95,37,36.9,52.233306884766,88,0,9,1,1,1,NA,4,2,4,1,6,4,4,4,1,NA,2,8,6,1,3,1,1,NA,1,NA,NA,NA,NA,NA,NA,NA,NA,NA,NA,2,4,4,5,5,2,4,4,3,4,4,5,4,2,3,3,4,4,4,4,3,4,4,2,4,4,2,1,1,1,1,1,1,1,1,1,4,4,4,4,3,1,1,1,1,2,4,1,1,1,1,1,1,1,1,1,1,7,1,1,1,1,5,1,1,1,3,7,1,1,1,1,1,1,3,1,4,3,1,7,7,1,1,5,5,5,5,5,5,5,5,5,1,1,1,1,1,2,1,3,2,1,2,1,2,4,2,1,1,1,1,1,1,1,1,4,3,2,2,2,3,1,1,5,4,4,2,5,1,1,4,1,2,1,1,4,1,3,3,4,1,4,5,5,5,5,2,5,4,3,3,2,1,1,1,1,1,1,5,3,1,3,2,5,4,1,1,1,5,4,3,3,5,4,3,3,2,2,1
"Tsinghua",1993,2,7,2,3,2,1,0,0,2,0,36.95,36.7,37.2,30.580093383789,82,17,7,3,2,1,0,4,2,5,0,8,3,6,5,1,1,2,7,3,2,2,8,2,1,1,"ÐÄÀí×ÉÑ¯ÊÒ",NA,NA,NA,NA,2,NA,NA,NA,NA,1,4,3,4,1,4,1,4,4,4,4,2,4,1,2,4,2,2,1,2,1,1,2,2,5,1,2,2,4,1,4,3,1,1,4,4,4,4,4,4,5,1,1,1,1,1,1,3,4,3,5,5,1,2,2,5,5,2,2,2,7,1,2,6,1,6,1,3,1,2,2,2,1,2,2,3,6,4,5,3,5,2,5,4,5,5,5,5,4,4,5,5,7,1,4,5,7,7,7,2,1,1,2,2,2,2,1,3,1,1,2,1,1,4,2,4,6,7,5,6,2,6,1,4,5,5,1,5,1,1,5,5,1,1,4,4,4,4,1,5,2,2,5,5,3,5,2,5,4,2,5,2,1,1,2,4,4,2,2,5,2,5,2,5,5,4,1,5,5,5,5,1,2,5,4,4,2,4,4
"METU",1993,2,5,2,4,2,1,0,0,2,NA,37,37.1,36.9,39.911697387695,52,3,3,2,2,1,NA,4,4,5,NA,5,1,5,3,2,1,2,3,1,NA,NA,1,1,NA,1,NA,NA,NA,NA,NA,NA,NA,NA,NA,NA,5,2,5,5,5,3,4,2,3,4,3,3,5,3,3,2,2,2,2,2,3,2,3,2,4,2,2,1,1,1,1,1,1,1,1,1,4,1,4,1,4,1,2,2,2,2,2,4,2,3,2,6,3,3,3,4,3,4,2,3,4,2,4,4,2,5,4,3,5,6,5,3,3,4,4,3,4,3,5,4,4,3,2,5,5,5,5,5,5,4,5,5,3,5,5,5,4,4,4,2,4,2,4,2,2,2,3,4,2,2,2,4,4,4,2,3,2,5,2,2,2,1,2,2,4,4,2,3,4,3,4,4,4,2,3,4,4,4,4,4,2,2,4,4,3,4,2,3,5,3,3,4,2,2,2,3,3,3,4,4,2,3,4,4,2,2,2,4,3,2,4,2,4,4,2,4,3,2,3
"VCU",1993,2,7,1,4,2,1,0,0,2,NA,37,36.94444444,37.05555556,37.553802490234,81,14.44444444,5,1,2,1,NA,4,4,5,NA,5,2,3,3,1,NA,2,8,3,1,4,1,1,NA,1,NA,NA,NA,NA,NA,NA,NA,NA,NA,NA,3,3,2,5,5,3,4,3,2,1,4,5,3,4,4,5,3,3,4,4,5,3,3,4,4,3,4,2,4,1,2,1,1,2,2,4,5,4,4,4,3,2,3,3,4,1,4,7,6,7,7,7,7,6,6,1,7,4,6,7,5,5,7,6,5,3,2,4,2,4,2,4,2,4,5,1,1,5,2,2,2,1,7,4,4,4,5,5,5,5,5,5,7,6,5,5,5,5,5,3,4,1,3,4,1,3,3,2,3,4,2,3,2,3,2,3,3,4,4,4,4,4,3,3,2,4,3,3,3,3,3,4,4,2,2,3,3,3,4,4,2,3,4,5,4,5,3,3,3,2,4,3,2,3,3,1,3,3,3,3,2,3,4,3,2,1,3,3,5,3,3,3,3,5,3,4,3,5,4
"SMU",1993,1,3,1,2,2,1,4,4,1,2,37.05,37,37.1,1.2931060791016,71,26,5,1,2,1,NA,4,4,1,NA,3,3,4,3,2,2,2,1,1,NA,NA,1,1,NA,1,NA,NA,NA,NA,NA,NA,NA,NA,NA,NA,3,3,3,3,3,3,3,3,3,3,3,3,3,3,3,3,3,3,3,3,3,3,3,3,3,3,3,3,3,3,3,3,3,3,3,3,3,3,3,3,3,3,3,3,3,3,3,4,4,4,4,4,4,4,4,4,4,4,4,4,4,4,4,4,4,4,4,4,4,4,4,4,4,4,4,4,4,4,4,4,4,4,4,3,3,3,3,3,3,3,3,3,6,5,5,5,5,5,5,3,3,3,3,3,3,3,3,3,3,3,3,3,3,3,3,3,6,4,4,4,4,4,3,3,3,3,1,3,3,3,3,4,4,4,4,4,3,4,3,3,3,3,4,3,3,4,3,3,3,3,3,3,3,3,3,3,3,3,3,3,3,3,3,3,3,3,3,3,3,3,3,3,3,3,3,3,3,3,3
"SMU",1993,1,7,2,1,2,1,1,0,1,4,37.1,37.1,37.1,1.2931060791016,70,26,5,1,2,1,NA,4,4,5,NA,2,2,2,2,2,1,2,8,3,1,2,1,1,NA,1,NA,NA,NA,NA,NA,NA,NA,NA,NA,NA,2,2,2,2,2,3,2,3,2,1,3,2,2,4,4,5,3,4,3,3,5,3,3,5,5,4,5,4,4,4,4,4,4,4,4,4,4,4,4,4,4,4,4,4,4,4,4,6,5,4,5,6,6,4,6,5,4,5,6,5,5,6,6,6,5,6,4,5,2,4,5,5,4,4,4,4,4,4,5,5,2,4,4,5,5,5,5,5,5,5,5,5,7,7,6,6,7,7,6,4,2,2,2,3,2,4,2,2,3,2,1,2,1,2,3,4,5,7,2,2,3,3,2,2,5,3,2,5,3,2,4,3,2,4,4,2,4,4,2,4,4,4,4,3,2,5,5,3,4,4,3,4,3,4,3,4,2,4,3,2,3,4,3,4,4,2,2,3,3,3,4,4,2,4,4,3,4,2,4
"VCU",1993,2,7,2,3,2,1,6,0,2,NA,37.11111111,37.11111111,37.11111111,37.553802490234,74,16.66666667,5,1,2,1,NA,4,4,5,NA,5,3,4,3,1,NA,2,8,3,5,8,1,1,NA,2,"Students for Bernie","Diversity Ambassador",NA,NA,NA,2,1,NA,NA,NA,4,2,1,2,3,2,1,1,4,2,2,4,2,5,3,4,2,4,4,3,4,4,4,4,5,5,4,4,5,4,4,4,1,4,5,4,4,4,2,4,2,2,2,2,1,4,2,6,6,5,6,5,1,5,6,6,5,5,5,7,3,7,5,6,1,6,5,6,6,6,5,5,5,6,6,6,7,3,4,6,6,1,6,5,4,4,5,5,4,2,4,4,5,5,6,7,5,6,6,1,1,2,1,1,4,2,1,2,1,2,2,4,1,2,2,4,4,6,6,7,3,2,5,5,5,1,1,1,4,2,5,5,5,2,5,5,1,5,3,2,2,1,5,2,4,4,4,4,5,4,2,4,1,5,1,2,5,4,4,2,5,5,4,4,2,2,5,5,5,1,1,4,4,5,1,2,2,2,5
"VCU",1993,1,3,1,4,2,1,1,0,2,NA,37.33333333,37.05555556,37.61111111,37.553802490234,68,10.55555556,5,1,2,1,NA,4,4,5,NA,8,5,8,3,2,2,2,5,3,2,5,1,2,4,2,"Caver Promise",NA,NA,NA,NA,4,NA,NA,NA,NA,2,2,5,3,4,2,2,3,2,3,3,3,3,3,3,3,3,3,3,2,3,2,3,3,3,3,3,3,2,2,3,2,3,4,4,4,3,4,4,3,4,2,4,4,3,3,3,4,2,4,2,2,6,2,2,4,2,2,3,4,2,2,4,4,2,4,3,3,4,4,4,2,3,4,3,4,4,4,2,5,6,3,4,4,4,4,4,4,4,2,2,2,2,3,3,3,3,3,3,2,4,4,2,2,2,4,2,2,4,4,3,2,4,4,3,5,4,2,1,1,1,2,4,2,3,3,3,2,4,3,3,4,2,2,2,2,2,2,4,2,3,2,2,4,4,4,3,4,4,4,4,4,2,2,3,2,4,3,3,4,4,4,4,4,3,4,2,4,4,4,4,4,3,3,3,3,3,3,3
"Oslo",1994,1,6,2,2,2,1,NA,NA,2,NA,35.25,35.2,35.3,59.916702270508,82,-1,4,1,2,1,NA,4,1,4,1,3,2,3,2,2,1,2,1,1,NA,NA,1,1,NA,1,NA,NA,NA,NA,NA,NA,NA,NA,NA,NA,4,4,3,4,4,4,3,3,3,3,3,4,3,4,4,4,2,3,2,2,3,2,2,4,4,2,3,4,4,2,4,4,2,2,2,3,4,3,4,3,4,4,3,3,3,2,4,5,5,5,5,5,6,5,4,6,4,5,3,6,3,4,4,5,5,4,4,6,4,4,5,4,4,4,4,4,4,6,5,4,5,2,4,3,3,4,4,3,2,2,3,3,2,2,2,2,3,3,2,3,3,2,3,2,3,3,3,3,2,3,2,2,3,4,3,3,2,2,1,1,2,1,3,5,3,2,2,2,2,3,3,4,4,2,4,4,4,4,2,3,2,3,4,4,3,3,4,3,3,2,3,2,3,4,3,2,1,2,4,2,2,4,4,2,3,2,2,4,2,2,3,2,2,2,2,3,2,1,4
"Oxford",1994,2,3,1,2,1,1,1,1,2,NA,35.3,36.7,33.9,51.75,71,1.666666667,5,1,1,1,NA,4,2,5,NA,3,2,6,8,1,NA,2,8,3,3,4,3,1,NA,1,NA,NA,NA,NA,NA,NA,NA,NA,NA,NA,4,5,2,3,2,4,3,4,2,3,4,4,4,3,5,4,2,1,1,2,3,2,2,5,5,1,5,5,5,4,5,5,5,5,5,5,5,4,5,5,4,5,4,3,4,3,4,2,2,1,5,5,2,5,5,2,1,3,1,5,2,5,3,4,1,1,1,5,4,4,4,3,1,2,1,4,2,3,5,3,4,3,2,5,5,5,5,4,3,4,3,4,6,5,5,4,4,5,6,2,3,3,2,3,2,2,2,2,1,1,1,3,3,4,3,5,6,5,2,2,2,2,4,4,4,4,4,3,3,4,4,5,4,1,3,4,4,3,4,3,3,2,4,5,5,4,3,4,4,3,4,3,2,2,3,5,5,5,5,3,1,5,3,3,4,2,2,4,5,3,4,4,2,5,5,5,5,1,1
"METU",1994,2,6,1,3,2,1,18,0,1,15,35.35,35.1,35.6,39.911697387695,59,2,3,2,2,1,NA,4,4,5,NA,4,4,8,6,1,NA,2,6,1,NA,NA,1,1,NA,2,"Kom¨¹nist Parti","Tiyatro Toplulu?u",NA,NA,NA,7,7,NA,NA,NA,4,5,5,5,3,3,2,3,3,2,5,4,4,3,2,3,2,3,2,3,2,2,2,3,4,2,2,2,3,4,2,3,1,2,2,4,4,2,2,4,2,1,1,1,2,1,3,2,2,2,2,5,2,2,2,2,3,2,2,2,2,2,3,2,1,3,2,3,3,2,5,2,2,2,1,2,2,2,2,2,2,2,2,4,3,2,5,4,4,2,3,2,3,4,3,5,4,3,2,2,2,1,3,2,2,3,3,2,2,1,1,2,1,2,1,4,4,5,2,4,5,1,3,2,4,5,3,4,2,4,2,5,4,1,4,5,2,4,4,3,4,4,4,5,5,4,4,3,2,3,4,3,2,4,2,2,2,5,4,3,2,4,4,4,4,2,2,4,3,4,4,5,3,4,4,5,4,4,5
"SMU",1994,1,7,1,5,2,1,2,0,1,6,35.35,35.4,35.3,1.2931060791016,70,27,5,1,2,1,NA,4,4,5,NA,3,4,3,3,1,NA,2,4,1,NA,NA,1,1,NA,1,NA,NA,NA,NA,NA,NA,NA,NA,NA,NA,2,3,3,4,3,3,3,3,3,3,3,3,3,1,2,2,2,3,4,2,2,2,3,3,3,3,3,4,4,4,4,4,4,4,4,4,4,4,4,4,4,4,4,4,4,4,4,4,1,5,4,3,3,3,3,4,3,4,4,3,4,5,3,4,4,4,4,5,3,4,4,5,5,4,4,5,5,4,4,3,5,3,4,4,4,4,4,4,4,4,4,4,2,2,2,2,3,2,2,2,3,3,3,2,3,2,3,4,3,2,1,2,2,4,4,1,1,2,1,1,1,1,3,2,4,2,2,4,2,3,3,3,3,4,3,3,4,4,2,2,3,3,3,4,3,3,4,4,3,3,3,3,2,2,3,3,1,5,4,4,4,4,4,4,4,2,2,4,4,4,4,4,4,4,3,3,3,3,3
"Oslo",1994,2,7,1,1,2,1,1,0,2,NA,35.45,35.5,35.4,NA,78,-14,4,1,2,1,NA,4,4,4,2,5,3,6,4,2,2,2,5,3,1,3,1,1,NA,1,NA,NA,NA,NA,NA,NA,NA,NA,NA,NA,2,2,3,5,4,2,2,3,4,3,5,4,4,2,3,3,3,3,3,2,3,3,3,4,4,2,2,4,4,1,4,3,2,3,4,5,4,4,4,4,4,4,3,3,2,4,4,2,2,1,2,2,2,2,4,1,1,4,1,2,2,4,4,6,2,1,2,5,2,3,2,2,2,1,2,1,2,2,1,3,2,1,1,5,5,5,5,5,4,2,5,5,6,5,4,4,4,4,3,3,3,3,3,3,3,4,3,2,3,1,2,3,2,3,3,3,4,7,5,5,4,4,1,4,3,4,3,4,3,2,5,4,3,2,3,2,4,4,5,3,4,3,4,1,5,5,4,4,3,3,4,4,3,3,2,1,3,5,2,1,2,3,3,5,2,2,2,4,4,3,3,4,2,3,4,4,3,2,4
"Kassel",1994,2,7,2,2,2,1,5,0,2,NA,35.5,35.1,35.9,51.316696166992,54,1,1,1,2,1,NA,2,2,5,NA,1,NA,4,2,2,1,2,8,3,1,3,1,1,NA,1,NA,NA,NA,NA,NA,NA,NA,NA,NA,NA,3,2,3,2,4,3,2,4,2,2,4,3,3,4,5,4,3,2,3,4,3,3,2,4,3,3,4,1,1,1,3,3,1,2,1,1,5,1,5,3,4,1,1,2,1,1,4,2,4,1,6,6,6,2,7,6,5,4,1,6,4,1,5,5,2,2,2,5,5,5,5,2,3,2,2,2,1,5,1,7,7,2,3,2,3,3,5,4,4,3,4,4,5,6,5,7,5,5,5,2,4,2,3,2,2,2,2,2,2,2,3,2,2,3,2,5,3,6,3,2,2,2,1,4,2,4,2,2,2,2,4,4,4,1,2,4,4,3,3,3,1,3,4,4,3,4,2,4,2,2,4,4,2,2,2,2,2,3,3,4,2,3,3,4,3,2,4,3,4,2,4,4,3,4,3,3,3,4,4
"METU",1994,2,7,1,4,2,1,0,0,1,5,35.5,34.6,36.4,39.911697387695,60,9,3,2,2,1,NA,4,4,4,4,4,1,5,5,1,NA,2,4,1,NA,NA,1,1,NA,1,NA,NA,NA,NA,NA,NA,NA,NA,NA,NA,2,4,2,5,5,1,2,2,2,1,5,2,5,4,5,4,3,2,1,2,5,3,2,5,5,3,5,2,1,2,3,5,2,4,3,1,5,3,5,4,4,1,1,2,3,4,4,2,2,1,1,7,2,1,6,2,2,6,1,1,2,6,2,7,1,2,2,2,1,1,1,1,1,1,2,1,2,1,2,1,1,1,2,5,4,5,5,5,5,4,4,5,7,7,7,7,7,6,6,1,1,1,1,1,1,1,1,2,1,1,1,1,1,3,1,4,6,7,4,5,7,1,2,2,3,4,5,4,5,5,4,4,4,1,1,3,4,4,5,3,3,5,5,5,5,5,5,5,5,4,5,5,2,2,1,3,4,4,4,4,1,4,3,4,3,4,1,4,3,4,4,5,1,4,5,4,4,5,5
"Kassel",1994,1,4,2,2,2,1,0,0,2,NA,35.55,35,36.1,51.316696166992,78,8,1,1,2,1,NA,1,NA,1,NA,1,NA,2,8,2,3,2,5,1,NA,NA,1,1,NA,1,NA,NA,NA,NA,NA,NA,NA,NA,NA,NA,1,1,3,3,1,2,1,1,1,1,2,1,1,3,4,3,3,3,4,3,3,3,3,4,5,3,3,5,5,1,5,4,1,2,1,5,4,3,3,1,3,2,4,3,1,3,4,1,1,1,4,4,2,1,1,2,1,2,1,6,1,6,1,1,1,5,4,1,2,1,2,3,2,7,5,7,7,7,1,7,6,2,6,4,4,5,5,5,5,5,5,5,4,5,5,4,4,3,4,1,2,2,2,5,3,3,4,1,1,4,2,3,2,5,3,1,2,4,7,1,3,1,4,1,1,5,3,2,1,1,4,4,2,3,1,3,5,1,5,1,2,5,3,4,5,5,5,4,4,4,4,4,2,2,2,1,1,1,4,5,3,3,3,1,2,2,3,5,1,2,3,1,1,1,1,1,4,5,3
"Oxford",1994,2,2,2,4,2,1,0,1,1,0.5,35.6,35.3,35.9,51.75,71,1.666666667,5,1,2,1,NA,4,2,5,NA,2,1,4,4,1,NA,2,8,1,NA,NA,2,1,NA,1,NA,NA,NA,NA,NA,NA,NA,NA,NA,NA,2,2,2,1,1,2,3,3,2,3,2,2,2,2,2,3,2,2,4,2,2,2,2,2,3,3,2,1,1,1,1,1,1,1,1,1,1,1,1,1,1,1,1,1,1,1,1,5,3,5,5,5,6,3,5,4,3,3,2,3,2,6,4,3,3,7,4,5,3,6,6,5,5,5,3,4,5,3,5,5,2,6,5,4,4,4,4,4,2,2,3,2,5,5,5,5,6,4,4,2,2,1,2,3,3,4,2,1,3,2,4,4,4,2,4,4,4,3,2,2,1,3,1,2,3,5,4,4,2,2,4,1,2,1,2,3,4,2,4,1,1,3,4,3,4,3,4,3,3,4,4,4,3,3,3,3,2,3,2,5,4,2,1,1,1,1,2,3,2,2,2,4,4,3,2,4,2,4,1
"METU",1994,1,7,2,3,2,1,14,0,1,2,35.65,35.5,35.8,39.911697387695,64,6,3,2,2,1,NA,4,4,4,4,8,6,4,4,1,NA,2,2,1,NA,NA,1,1,NA,1,NA,NA,NA,NA,NA,NA,NA,NA,NA,NA,3,3,2,4,3,4,2,3,1,2,3,2,4,3,3,4,3,2,2,3,3,3,3,3,4,4,3,2,3,3,3,4,2,4,3,3,4,4,4,4,4,2,1,3,1,2,4,6,5,2,3,5,6,2,5,4,2,4,4,2,2,4,5,5,2,5,5,5,5,5,2,3,5,3,5,3,5,2,5,3,5,2,3,5,4,4,5,5,3,3,3,3,6,7,6,7,7,6,6,2,3,2,3,2,2,2,4,4,3,3,2,2,2,4,2,3,4,2,2,2,3,3,2,3,2,4,2,4,4,3,4,3,4,2,2,4,4,2,4,5,2,3,4,4,3,2,3,4,4,3,3,3,2,2,2,2,2,3,4,2,2,4,3,3,4,4,2,4,4,2,2,3,2,4,4,4,4,1,4
"Kassel",1994,2,6,1,4,2,1,34,0,2,NA,35.65,34.7,36.6,51.287796020508,71,4,1,1,2,1,NA,4,4,2,2,5,3,7,6,1,NA,2,6,1,NA,NA,1,1,NA,2,"Kickbox-Gruppe",NA,NA,NA,NA,7,NA,NA,NA,NA,4,4,5,3,5,4,4,5,4,4,5,4,4,2,3,4,3,2,2,2,2,2,2,3,5,1,3,4,4,2,5,2,2,4,2,4,5,5,5,4,5,4,3,4,2,2,4,3,3,2,2,3,5,2,2,2,2,2,2,2,2,2,2,5,1,2,1,3,2,2,2,2,2,2,1,1,1,1,2,3,3,2,2,5,4,4,5,5,4,2,4,4,5,6,7,6,7,5,6,2,2,2,2,1,2,2,2,1,1,2,2,2,1,2,5,3,4,4,3,2,4,4,1,3,2,4,3,4,3,2,4,4,4,1,2,4,3,2,4,4,2,4,3,4,4,3,4,4,3,2,4,4,2,2,1,4,2,4,2,4,2,3,3,4,2,3,1,4,4,5,4,3,2,4,4,5,4,2,3
"Oxford",1994,1,4,2,2,2,1,0,0,2,NA,35.65,35.4,35.9,51.75,74,2.777777778,5,1,2,1,NA,4,4,5,NA,1,NA,6,6,1,NA,1,NA,3,1,8,1,1,NA,1,NA,NA,NA,NA,NA,NA,NA,NA,NA,NA,3,5,4,2,1,1,3,3,2,4,3,4,5,2,4,1,2,3,3,5,3,4,3,4,4,4,4,5,5,4,5,4,5,5,5,5,5,5,5,5,5,5,5,5,5,4,4,7,7,6,7,7,7,4,7,7,7,1,7,7,7,7,7,7,1,7,2,3,7,6,2,1,1,3,7,7,3,7,1,7,2,3,7,5,4,4,5,5,4,4,4,4,7,5,3,2,4,4,4,4,4,1,4,4,1,4,4,3,4,4,3,3,2,3,2,2,2,1,2,2,2,2,2,1,3,5,4,1,5,5,1,2,3,2,3,4,2,2,2,2,5,2,3,2,4,4,4,4,4,4,4,3,2,2,5,1,1,4,4,3,2,2,2,3,4,2,5,4,5,3,4,4,4,4,2,4,3,1,4
"VCU",1994,1,3,1,4,2,1,24,0,2,NA,35.66666667,35.33333333,36,37.553802490234,88,10,5,1,2,1,NA,4,4,4,4,6,2,8,8,2,3,2,8,3,1,8,3,2,5,2,"MLK middle school mentoring",NA,NA,NA,NA,6,NA,NA,NA,NA,2,3,4,2,3,4,2,3,3,4,4,3,2,3,3,3,2,2,2,2,2,3,2,3,3,3,4,4,5,4,4,4,5,5,3,5,4,4,4,3,3,3,4,3,3,5,5,3,2,1,2,3,5,1,2,2,1,2,3,4,6,4,6,5,3,2,2,5,3,2,2,2,2,4,3,3,3,3,4,3,4,2,2,4,4,4,4,4,4,3,3,3,3,3,3,3,4,4,3,2,4,2,2,2,2,3,3,4,2,2,1,3,4,3,2,2,2,2,2,2,3,2,4,2,4,4,3,2,2,5,4,2,2,3,2,2,2,4,3,2,5,4,2,3,5,5,4,4,4,4,4,3,2,3,3,4,3,3,2,4,2,2,3,2,4,2,4,4,4,4,4,3,2,5,3,3,3,3,1
"Oxford",1994,2,7,2,2,2,1,0,0,1,12,35.7,34.7,36.7,51.75,71,1.666666667,5,1,4,1,NA,4,4,5,NA,4,1,6,6,1,NA,2,8,1,NA,NA,1,1,NA,1,NA,NA,NA,NA,NA,NA,NA,NA,NA,NA,2,2,5,1,1,2,4,3,2,4,5,1,3,4,5,5,3,3,2,3,3,2,3,4,5,2,5,2,4,3,5,2,1,4,2,5,5,5,4,4,2,2,2,3,4,1,2,7,7,7,7,2,7,7,7,7,5,6,4,6,5,7,6,7,4,5,3,2,4,6,4,5,5,4,2,3,3,2,5,5,3,3,4,3,4,3,2,4,4,4,4,4,6,4,3,3,5,5,4,4,4,2,4,4,3,4,4,3,2,4,1,4,2,2,2,5,4,1,2,2,3,4,3,3,4,4,4,2,2,2,2,4,2,2,2,4,2,2,2,2,3,4,5,5,3,3,4,3,4,2,3,3,3,4,3,2,3,4,5,5,2,3,4,2,2,3,3,4,4,2,3,4,5,3,2,4,4,2,3
"Oslo",1994,1,6,2,4,2,1,1,1,2,NA,35.7,35.6,35.8,59.916702270508,70,-5,4,1,2,1,NA,4,4,5,NA,4,1,8,7,1,NA,2,8,2,1,4,1,1,NA,1,NA,NA,NA,NA,NA,NA,NA,NA,NA,NA,3,2,3,5,3,2,2,3,1,2,3,2,2,4,2,4,3,3,4,2,4,3,3,2,4,3,4,4,4,2,4,3,2,5,4,5,4,4,4,5,4,2,4,3,1,4,4,7,7,7,7,6,6,2,5,6,4,6,5,6,3,3,6,6,2,5,5,6,6,6,5,5,5,6,6,2,5,6,5,4,5,5,5,3,4,4,2,2,2,1,4,5,3,6,7,6,6,5,5,2,2,1,2,2,2,2,3,4,2,2,1,4,2,3,2,5,7,6,3,6,6,6,3,3,4,4,2,1,4,4,2,5,5,1,4,5,3,4,1,5,2,2,3,5,5,5,5,5,3,5,5,3,2,4,1,5,2,4,2,1,4,4,2,4,2,2,4,4,4,4,3,4,3,3,4,2,5,5,3
"METU",1994,2,2,1,5,2,1,NA,NA,2,NA,35.75,35.3,36.2,39.911697387695,69,6,3,2,2,1,NA,2,2,3,1,4,2,5,5,1,NA,2,3,1,NA,NA,1,1,NA,2,"Ankara G?n¨¹ll¨¹ Tak?m?",NA,NA,NA,NA,5,NA,NA,NA,NA,5,1,5,5,2,4,3,2,3,5,5,3,4,2,3,3,1,1,1,2,2,1,2,4,3,3,3,2,2,2,2,4,3,4,3,2,5,4,5,4,5,1,3,1,4,2,5,2,1,1,1,3,4,3,1,1,1,1,2,1,1,1,1,1,1,1,1,2,1,1,1,1,3,1,1,1,2,1,1,2,3,1,1,5,5,4,5,5,3,3,3,3,6,7,7,7,7,5,5,2,1,3,3,4,2,3,2,2,2,3,2,2,2,3,2,5,8,6,6,6,6,6,2,2,4,5,3,4,3,3,3,5,3,1,3,4,4,3,5,3,2,3,4,3,5,5,3,5,5,2,4,4,1,1,1,2,5,5,5,4,1,1,2,5,2,5,2,4,2,5,5,5,2,4,4,4,4,5,5
"Oslo",1994,1,4,2,3,2,1,1,0,2,NA,35.75,35.7,35.8,59.912704467773,95,1,4,1,2,1,NA,4,4,5,NA,1,NA,7,7,1,NA,2,5,3,1,2,1,1,NA,1,NA,NA,NA,NA,NA,NA,NA,NA,NA,NA,2,2,3,4,4,4,3,3,2,3,3,3,2,3,3,4,3,2,2,3,4,2,3,2,4,3,3,5,2,4,3,2,2,3,2,3,4,4,4,4,2,2,2,2,2,2,2,4,4,4,5,4,5,4,3,4,4,6,4,6,4,6,4,6,4,4,4,6,5,6,6,6,4,4,4,4,4,4,6,4,4,4,4,4,3,4,4,4,3,3,4,4,7,4,4,4,3,3,3,4,4,1,4,4,4,3,3,5,4,2,2,3,3,3,2,5,6,6,2,4,4,4,4,3,2,4,2,4,4,4,4,4,4,2,2,4,4,2,4,4,3,3,2,4,4,4,4,3,4,4,3,4,3,1,3,3,5,4,4,4,4,2,1,2,1,3,1,4,4,3,3,4,4,4,4,3,3,2,2
"METU",1994,2,2,1,2,2,1,2,0,2,NA,35.75,35.5,36,39.911697387695,56,4,3,2,2,1,NA,4,4,4,1,5,5,4,3,1,NA,2,8,1,NA,NA,4,1,NA,1,NA,NA,NA,NA,NA,NA,NA,NA,NA,NA,4,4,4,4,4,4,2,3,4,4,5,3,5,3,3,4,3,2,3,3,3,3,3,4,4,3,3,4,3,4,2,5,4,4,3,4,5,5,4,4,5,4,4,2,2,4,4,6,2,2,6,7,5,2,6,5,2,6,2,2,2,2,6,2,2,2,2,5,2,2,2,2,2,2,1,1,2,2,2,5,5,3,2,5,4,4,4,5,5,4,4,4,4,5,5,6,5,4,4,2,3,2,2,2,2,2,2,4,3,3,2,2,4,4,1,4,6,6,4,5,5,4,2,2,5,3,1,4,2,4,2,5,5,1,5,5,4,5,2,3,4,5,3,2,5,5,5,5,5,4,5,5,2,2,2,4,4,4,4,3,1,4,5,2,4,5,2,5,4,5,5,4,1,4,5,5,2,2,4
"Oslo",1994,2,5,2,3,2,1,NA,2,2,NA,35.8,34.9,36.7,59.912704467773,69,-4,4,1,2,1,NA,4,4,5,NA,5,3,6,6,1,NA,2,8,3,1,4,1,1,NA,1,NA,NA,NA,NA,NA,NA,NA,NA,NA,NA,2,3,2,2,2,4,1,2,1,4,5,2,1,2,1,1,2,2,1,2,2,2,3,3,2,2,2,2,1,1,4,1,2,1,4,2,4,4,2,4,2,1,2,2,1,1,1,3,5,5,5,6,2,3,4,2,2,6,4,2,1,2,6,1,1,3,2,7,3,5,2,5,4,2,5,1,3,3,5,2,3,2,5,5,5,5,5,4,4,1,4,3,6,6,7,5,5,4,3,4,2,1,2,3,2,4,2,2,2,1,1,4,1,1,1,3,4,7,3,2,3,1,1,2,3,5,2,5,4,2,5,4,1,1,1,2,4,2,2,5,4,4,5,1,5,4,5,4,4,4,2,4,2,3,3,2,1,4,1,5,3,4,1,5,2,4,1,4,4,1,2,5,1,3,4,2,3,5,1
"Oxford",1994,2,4,1,3,2,1,240,0,2,NA,35.8,35,36.6,51.75,71,1.666666667,5,1,2,1,NA,4,4,5,NA,2,1,4,2,1,NA,2,5,1,NA,NA,3,1,NA,1,NA,NA,NA,NA,NA,NA,NA,NA,NA,NA,4,4,4,4,4,4,2,4,3,3,5,3,4,3,4,4,3,2,2,3,3,3,3,4,4,2,3,2,3,2,4,2,2,4,2,4,4,4,2,4,2,2,2,2,3,2,4,3,4,3,3,3,5,1,2,3,3,3,3,3,5,3,5,3,3,4,3,3,3,3,3,3,3,3,3,3,4,3,3,3,4,3,3,4,4,4,4,4,5,4,4,4,5,5,5,5,5,5,5,2,2,4,2,2,2,2,2,3,2,2,2,2,2,3,2,4,5,5,3,3,3,1,3,4,4,4,2,2,2,2,2,4,2,2,4,4,3,4,2,2,3,3,4,4,2,4,4,4,4,3,4,4,2,2,4,4,4,4,4,2,3,3,3,4,4,4,3,4,4,4,4,4,2,5,2,3,3,2,4
"VCU",1994,2,7,1,4,2,1,4,0,2,NA,35.83333333,35.83333333,35.83333333,37.553802490234,92,10,5,1,2,1,NA,4,2,5,NA,4,4,3,3,2,2,2,3,3,1,2,1,1,NA,2,"Sikh Students Association",NA,NA,NA,NA,2,NA,NA,NA,NA,3,2,1,5,3,4,1,3,3,1,3,4,3,4,4,3,2,3,3,4,4,4,3,3,3,4,3,3,4,3,3,2,3,5,4,4,5,3,4,4,3,4,3,3,4,4,4,4,4,1,4,5,6,1,1,2,5,6,2,1,4,4,2,1,5,2,2,4,3,5,5,2,2,4,2,1,5,2,4,4,3,2,3,5,5,5,5,5,5,5,5,5,5,4,3,4,5,5,4,3,3,1,4,3,3,4,3,2,1,3,3,2,2,4,2,4,4,5,4,4,2,2,2,2,4,4,2,4,2,1,2,5,4,2,3,4,3,3,3,3,4,3,3,2,4,4,3,4,4,4,3,3,2,1,3,4,4,3,3,2,2,2,3,4,4,2,3,4,4,5,5,3,4,3,4,4,4,1,2
"VCU",1994,2,7,1,3,2,1,17,0,2,NA,35.83333333,35.55555556,36.11111111,37.580902099609,74,16.66666667,5,1,2,1,NA,4,4,4,2,5,2,4,2,2,1,2,8,3,8,8,1,1,NA,1,NA,NA,NA,NA,NA,NA,NA,NA,NA,NA,3,3,3,3,5,3,5,3,3,3,3,5,3,3,3,3,3,3,3,3,3,3,3,3,4,3,3,4,4,4,4,4,4,4,4,4,4,4,4,4,4,4,4,4,4,4,4,5,2,5,6,6,6,5,3,5,5,4,4,4,2,2,5,5,5,6,4,2,2,2,3,2,4,5,4,3,2,4,2,5,6,2,6,4,4,4,4,4,4,4,4,4,7,4,4,4,4,4,4,4,4,2,3,4,4,4,4,2,3,3,2,3,2,3,2,5,6,4,5,6,6,6,4,4,3,3,1,2,2,3,4,3,3,1,4,4,4,3,2,4,3,4,3,4,4,4,2,4,3,4,3,3,2,2,3,2,4,4,3,1,4,4,5,3,4,2,4,3,4,4,4,3,4,4,4,2,2,3,2
"Oslo",1994,1,7,1,2,2,1,NA,NA,2,NA,35.85,35.6,36.1,59.916702270508,87,1,4,1,1,1,NA,4,4,4,1,4,3,5,1,1,NA,2,3,3,1,3,1,1,NA,1,NA,NA,NA,NA,NA,NA,NA,NA,NA,NA,4,3,4,1,3,4,3,4,4,4,3,3,5,3,3,4,3,4,5,3,2,2,3,2,4,2,4,2,3,1,3,4,1,4,1,2,4,4,4,4,4,2,1,1,4,1,4,5,5,6,6,5,5,3,6,4,5,5,6,4,4,4,5,6,1,2,5,5,2,2,2,5,3,4,2,2,4,2,3,4,3,3,3,5,3,4,4,4,3,4,3,2,4,5,4,4,2,3,5,3,3,1,3,2,4,4,3,1,4,1,2,2,3,4,3,2,3,2,1,1,2,1,2,4,4,4,1,3,1,1,4,1,2,1,4,5,2,3,5,2,1,1,5,5,3,4,1,4,3,4,4,2,1,4,2,4,1,3,5,1,5,4,4,3,4,3,2,2,4,4,4,2,3,4,3,1,3,4,3
"Zurich",1994,2,7,1,4,2,1,1,0,2,NA,35.85,35.3,36.4,47.36669921875,76,-1,1,1,2,1,NA,4,4,4,4,7,4,7,6,1,NA,2,5,3,1,8,1,1,NA,1,NA,NA,NA,NA,NA,NA,NA,NA,NA,NA,3,3,4,3,2,3,4,4,2,4,4,2,3,2,3,2,3,3,2,2,2,2,2,3,3,2,2,3,4,2,4,2,3,4,3,3,4,3,3,3,3,2,2,2,2,2,3,2,2,2,2,2,2,2,3,2,1,2,2,2,2,2,2,2,1,2,2,2,2,1,1,2,2,2,2,2,2,2,1,5,3,1,2,4,4,4,5,5,5,3,4,4,4,4,5,4,4,4,4,2,2,1,2,2,2,2,2,2,2,2,3,4,2,3,2,4,5,5,4,5,5,4,2,3,2,4,4,3,3,2,4,2,2,1,4,3,4,2,3,4,3,4,2,4,5,4,4,4,4,4,4,4,2,2,2,3,2,4,2,3,3,2,3,3,2,4,3,4,4,4,4,4,2,4,4,4,3,3,3
"SMU",1994,2,7,1,3,2,2,2,0,2,NA,35.85,35.7,36,1.2931060791016,70,26,5,1,2,1,NA,4,4,5,NA,5,5,4,4,2,5,2,8,1,NA,NA,1,1,NA,1,NA,NA,NA,NA,NA,NA,NA,NA,NA,NA,2,1,2,4,2,3,2,2,2,2,2,2,2,4,4,4,2,4,4,3,4,3,4,4,5,3,4,4,4,2,4,4,2,3,4,3,4,4,4,4,4,2,2,2,3,4,4,1,2,1,2,2,1,2,1,2,1,2,1,2,2,1,2,4,2,1,2,3,2,1,3,2,2,3,2,2,1,2,2,3,3,2,1,4,4,4,4,4,5,4,4,4,7,6,5,6,6,6,5,2,2,1,2,4,2,3,2,2,2,2,2,2,2,3,3,5,7,5,2,3,5,6,1,4,4,4,2,4,4,2,4,4,4,1,3,4,4,3,2,2,3,4,4,3,4,4,4,4,3,4,5,5,2,2,2,2,2,2,2,3,3,2,2,4,4,4,2,4,4,4,4,4,2,4,4,4,4,2,5
"Tsinghua",1994,2,7,1,2,2,1,1,0,2,0,35.85,35.7,36,39.928894042969,21,11,7,3,2,1,0,4,4,5,0,6,4,8,4,1,1,1,1,3,1,8,4,2,1,2,NA,NA,NA,NA,NA,0,0,0,0,0,3,1,4,2,4,5,2,2,2,3,3,2,2,2,3,3,3,3,4,4,3,5,5,3,2,3,4,4,4,2,5,5,2,3,4,4,3,4,3,5,2,3,4,4,2,2,5,4,5,5,2,2,4,2,5,3,3,3,3,5,2,4,3,6,3,3,2,5,5,2,5,7,4,4,3,3,5,2,6,5,5,4,3,4,3,4,3,4,3,2,4,3,5,4,5,3,4,4,3,2,2,1,2,4,3,3,4,2,2,3,2,4,2,3,3,3,3,4,2,3,1,2,4,5,5,3,2,2,3,3,1,5,3,2,4,5,2,3,3,2,2,2,3,4,4,2,2,4,3,4,5,4,2,2,2,1,3,4,3,4,2,4,1,4,3,2,3,3,3,3,3,2,2,4,5,4,4,3,4
"Zurich",1994,2,5,1,3,2,1,NA,NA,1,15,35.86,35.84,35.88,47.341598510742,76,-2,1,1,1,1,NA,4,4,4,1,8,5,7,7,2,1,2,8,1,NA,NA,1,1,NA,1,NA,NA,NA,NA,NA,NA,NA,NA,NA,NA,3,2,1,4,2,2,2,2,3,5,2,2,2,3,5,3,2,3,2,2,4,2,3,5,4,2,4,2,5,1,5,2,1,1,1,3,3,3,2,3,1,1,1,2,2,2,2,1,1,1,1,1,4,2,2,1,1,1,1,1,1,1,1,2,1,4,3,3,6,4,4,4,2,2,2,2,1,2,2,2,4,4,2,2,3,3,3,4,4,3,4,4,5,5,6,5,5,5,3,2,3,1,4,4,4,3,2,4,2,4,1,1,2,4,3,4,3,3,2,2,1,2,2,4,2,4,3,1,1,2,2,3,2,2,3,4,2,2,4,1,5,5,5,2,4,4,5,2,2,5,2,2,1,1,3,1,1,4,1,2,4,2,4,3,2,2,3,2,4,4,4,1,4,2,1,2,1,3,4
"VCU",1994,2,7,1,3,2,2,0,2,2,NA,35.86111111,35.55555556,36.16666667,37.552200317383,57,17.22222222,5,1,2,1,NA,4,4,4,1,8,4,3,3,2,1,2,5,1,NA,NA,2,1,NA,1,NA,NA,NA,NA,NA,NA,NA,NA,NA,NA,4,3,4,3,3,3,5,3,4,2,4,3,3,3,4,5,2,4,3,3,4,4,2,4,4,2,3,4,4,3,4,3,3,3,3,4,3,4,4,4,4,2,2,3,3,4,4,7,5,5,5,6,5,6,2,6,2,7,5,4,4,3,5,4,1,2,2,2,1,2,2,1,2,2,3,2,3,2,2,2,2,1,3,4,5,4,4,4,4,3,3,3,6,5,4,4,7,7,6,3,2,2,3,2,2,4,2,2,2,2,2,2,3,2,4,3,3,4,3,3,3,2,3,3,2,4,4,4,4,4,4,3,2,2,2,4,4,2,5,3,3,4,4,5,2,4,3,3,3,2,2,2,2,2,2,2,5,4,4,2,2,3,4,3,3,3,1,4,4,4,3,2,1,3,4,1,3,1,4
"Oslo",1994,1,6,2,2,2,1,NA,NA,1,1,35.9,35.6,36.2,59.912704467773,70,-2,4,1,2,1,NA,4,4,5,NA,3,1,3,2,1,NA,2,8,1,NA,NA,2,1,NA,1,NA,NA,NA,NA,NA,NA,NA,NA,NA,NA,4,5,4,3,1,4,4,5,2,3,5,4,3,4,3,3,2,3,2,4,3,3,2,2,5,2,4,2,3,1,4,1,1,1,1,4,4,3,2,3,2,1,1,3,2,2,2,5,4,4,4,6,5,5,3,5,4,5,4,4,1,5,5,5,4,5,3,7,4,4,2,3,6,5,4,3,5,2,3,4,4,3,4,5,4,3,4,4,3,3,3,3,4,3,4,2,3,3,3,3,2,1,5,4,5,4,3,4,4,3,1,1,1,3,1,5,6,3,3,1,1,1,4,2,2,4,2,2,2,1,1,4,3,3,4,4,2,2,2,2,2,1,4,5,5,2,3,3,3,3,3,4,3,2,3,2,4,5,1,5,4,1,1,4,2,1,2,3,3,1,1,2,2,4,3,1,2,5,3
"Poland",1994,2,7,2,4,2,1,29,3,2,NA,35.9,35.8,36,52.25,83,1,9,1,2,1,NA,4,4,5,1,4,4,4,4,2,1,2,5,2,1,1,1,1,NA,1,NA,NA,NA,NA,NA,NA,NA,NA,NA,NA,5,5,4,5,3,2,2,4,2,5,4,4,4,2,2,2,4,4,3,4,2,4,5,2,3,5,4,4,2,2,4,4,2,2,4,4,4,4,3,2,4,2,4,1,2,3,2,4,4,4,3,4,5,4,5,4,4,3,4,4,3,1,1,5,2,1,4,4,4,3,2,4,5,5,3,4,4,4,4,4,4,4,4,4,4,4,4,4,4,4,4,4,2,3,3,3,4,4,3,1,4,2,4,3,4,4,2,2,2,1,1,1,1,1,1,4,4,5,3,3,3,3,4,2,2,3,5,2,2,2,4,1,1,1,4,3,4,2,2,2,1,1,4,2,4,4,4,4,4,4,4,4,2,2,2,2,2,4,4,1,3,2,2,2,2,2,2,3,2,4,5,5,2,2,4,4,3,3,4
"METU",1994,1,6,2,5,2,1,0,10,2,NA,35.9,35.5,36.3,39.911697387695,56,4,3,2,2,1,NA,4,4,5,NA,3,1,6,6,1,NA,2,8,3,1,8,1,1,NA,1,NA,NA,NA,NA,NA,NA,NA,NA,NA,NA,5,4,4,4,5,5,2,4,4,5,5,3,5,1,2,2,2,2,2,2,2,2,2,2,5,2,4,4,4,2,4,5,4,2,2,4,2,3,2,4,3,4,4,4,1,1,3,5,2,2,6,6,1,6,5,3,2,3,5,2,2,2,4,5,2,5,5,5,4,3,3,2,3,3,6,3,5,2,3,6,6,1,3,5,2,4,5,4,2,2,2,2,6,5,6,6,5,4,4,4,2,1,2,1,2,1,2,1,2,1,1,1,4,5,5,3,3,2,1,1,2,1,4,2,4,3,1,2,1,3,3,4,4,2,4,5,3,4,3,5,3,3,4,3,4,1,2,2,2,2,2,3,3,1,1,3,4,4,4,4,1,4,4,4,5,2,4,3,4,3,4,3,4,4,1,2,3,2,1
"SMU",1994,2,1,1,4,2,1,1,0,2,NA,35.9,35.9,35.9,1.2931060791016,71,26,5,1,2,1,NA,4,4,4,4,3,3,3,3,1,NA,2,5,1,NA,NA,1,1,NA,1,NA,NA,NA,NA,NA,NA,NA,NA,NA,NA,2,4,2,4,2,4,2,2,2,2,4,2,3,3,3,4,3,3,3,2,3,3,3,3,3,3,3,4,4,4,4,4,4,4,4,4,4,4,2,2,3,2,2,4,2,2,2,6,6,5,3,5,5,5,5,5,5,2,3,7,6,3,3,4,3,2,2,4,2,3,3,3,2,2,2,1,5,2,3,2,2,2,3,4,4,4,4,4,4,4,4,4,6,5,5,5,5,5,5,2,2,2,4,3,2,4,4,2,3,2,3,3,2,3,3,5,7,5,7,7,7,7,4,4,4,2,2,2,4,4,4,4,4,2,4,4,4,4,4,4,2,2,4,4,3,4,2,4,3,4,4,4,2,2,3,2,3,4,3,2,2,2,4,4,4,4,4,3,4,4,4,4,2,4,4,4,4,4,4
"VCU",1994,2,3,1,4,2,1,NA,0,2,NA,35.94277778,36.33,35.55555556,NA,71,10.55555556,5,1,2,1,NA,4,4,5,NA,3,3,4,3,1,NA,2,6,3,1,5,3,1,NA,1,NA,NA,NA,NA,NA,NA,NA,NA,NA,NA,1,4,5,5,5,5,4,5,4,4,1,4,5,2,2,4,3,3,3,4,4,4,3,3,5,3,3,1,1,1,2,1,1,1,1,1,3,1,3,3,3,1,1,1,1,1,3,2,2,1,2,2,3,2,2,3,2,2,2,1,2,2,2,1,4,2,5,5,4,2,4,3,5,6,6,5,4,4,2,5,5,5,5,5,5,5,5,5,5,5,5,5,3,3,4,3,2,3,3,2,3,2,4,2,2,2,2,5,2,2,3,2,4,4,4,2,4,2,3,3,1,1,3,3,4,4,2,3,4,4,2,4,3,3,3,3,3,4,2,3,2,3,4,4,4,2,2,3,3,3,3,3,2,2,2,2,3,4,3,3,2,3,4,4,3,3,3,4,4,2,1,3,2,5,3,3,3,3,1
"Portugal",1994,1,3,2,4,2,1,5,0,1,12,35.95,35.9,36,38.716705322266,42,13,8,1,2,1,NA,4,4,5,1,8,6,5,5,1,NA,2,8,1,NA,NA,3,1,NA,1,NA,NA,NA,NA,NA,NA,NA,NA,NA,NA,2,2,4,4,3,2,4,2,5,4,4,3,5,1,2,2,3,3,3,3,2,2,2,3,5,2,3,1,2,1,2,2,1,1,1,3,3,2,3,2,2,1,1,1,1,2,3,2,2,3,3,2,3,3,2,5,1,1,3,1,1,2,1,1,1,3,5,2,1,3,2,1,1,2,5,1,5,1,2,7,6,1,5,5,5,5,5,5,5,4,5,4,5,5,5,5,4,5,5,2,2,1,3,2,2,1,1,2,1,1,3,5,3,5,2,5,3,2,3,2,2,2,2,4,4,3,3,3,1,2,5,4,3,3,3,2,2,4,3,3,3,4,5,3,4,3,1,3,1,4,5,3,2,2,2,1,2,4,4,3,1,2,4,3,4,3,4,4,3,4,5,3,3,3,2,3,4,2,2
"SMU",1994,1,6,2,4,2,1,2,0,2,NA,35.95,35.9,36,1.2931060791016,70,26,5,1,2,1,NA,4,4,5,NA,1,NA,6,6,2,8,2,8,1,NA,NA,1,1,NA,2,"Windsurfing","Crusades","Emerging Markets",NA,NA,4,12,2,NA,NA,4,4,4,4,2,4,2,3,3,3,4,4,5,4,3,3,2,2,1,2,3,2,2,3,5,2,3,3,4,3,5,2,2,3,4,4,5,4,4,4,4,3,3,3,3,3,4,5,5,4,5,5,6,3,5,2,4,3,3,4,6,4,3,5,2,5,3,3,4,3,3,3,4,4,3,3,3,3,5,3,3,3,3,4,4,4,5,4,4,4,3,3,6,6,5,5,6,6,6,1,2,1,2,2,1,2,2,2,1,2,2,1,2,2,3,4,5,5,4,3,2,5,2,4,5,3,2,3,3,4,4,4,3,2,5,4,4,5,2,3,3,3,4,4,4,3,3,4,4,4,4,4,2,2,2,3,2,5,4,2,3,4,4,4,3,3,3,4,3,4,4,4,2,4,4,4,4,2,3
"Poland",1994,2,4,1,3,2,1,8,0,1,2,35.95,35.7,36.2,49.949798583984,74,NA,9,1,2,1,NA,4,4,2,2,3,1,4,2,2,1,2,1,6,1,1,1,1,NA,1,NA,NA,NA,NA,NA,NA,NA,NA,NA,NA,3,2,2,2,2,2,1,2,2,2,2,2,2,2,3,3,3,3,3,3,4,3,3,3,4,4,2,4,4,2,4,4,3,4,4,4,4,4,4,4,4,4,4,3,4,4,4,3,2,2,3,2,3,1,2,2,1,7,3,5,2,2,5,3,2,3,3,5,6,3,4,5,3,5,3,3,6,6,5,2,4,3,4,4,4,4,4,4,5,3,4,4,3,4,5,5,5,5,5,4,4,4,4,4,4,4,4,2,4,3,2,4,3,4,3,3,4,2,3,2,4,3,2,4,2,4,1,4,2,4,3,4,4,4,4,4,4,4,4,4,2,2,4,4,2,3,2,3,3,2,2,2,4,2,4,2,3,3,4,2,4,4,4,4,4,2,2,2,4,4,2,2,4,4,2,3,4,1,5
"VCU",1994,2,6,1,3,2,1,20,0,2,NA,35.97222222,36.11111111,35.83333333,37.552200317383,94,13.33333333,5,1,2,1,NA,4,4,4,2,4,3,6,6,2,3,2,8,3,3,6,1,2,5,2,"Psychology of Women","Imperial Plaza","GSUMC (CARITAS)","Disco Sports","Nannying",6,5,2,7,2,3,2,3,2,2,2,2,4,2,2,3,4,4,3,3,4,2,2,2,2,3,2,2,3,5,2,4,4,5,4,4,5,4,4,5,4,5,5,5,5,5,3,5,4,4,4,5,2,6,2,5,3,5,3,6,5,2,5,5,5,3,2,2,6,2,3,2,5,2,5,3,2,2,2,3,2,2,2,2,2,2,2,3,5,5,5,5,5,5,5,5,5,6,6,6,5,6,6,6,3,3,1,2,2,2,4,2,2,2,2,1,2,2,3,1,5,6,6,6,6,6,6,4,4,4,5,3,4,3,3,4,4,3,1,4,4,4,3,4,3,3,4,4,2,5,5,5,4,4,4,4,4,2,3,2,4,4,4,4,2,2,4,3,4,2,3,2,3,3,3,4,4,2,4,4,3,3,2,4
"METU",1994,1,5,2,1,2,1,3,NA,2,NA,36,35.5,36.5,39.911697387695,66,5,3,2,2,1,NA,4,4,5,NA,6,3,6,6,2,5,2,8,1,NA,NA,1,2,3,1,NA,NA,NA,NA,NA,NA,NA,NA,NA,NA,4,4,4,5,4,3,2,2,3,4,4,2,5,3,3,3,2,2,2,2,3,2,2,2,3,2,3,3,2,4,3,3,2,3,3,4,4,4,4,4,4,2,2,2,4,3,4,6,2,3,5,6,4,2,3,2,3,2,5,5,5,2,2,3,2,4,2,2,2,5,3,3,2,2,2,2,2,2,5,2,2,2,2,4,4,4,4,4,4,4,4,4,6,5,5,5,5,4,5,2,2,2,2,2,2,2,2,4,2,2,2,2,2,2,2,5,7,6,6,2,5,6,1,2,4,4,4,4,4,3,4,4,2,1,2,4,4,4,3,3,3,4,4,3,4,4,4,4,4,3,4,4,3,3,2,3,4,4,4,2,2,4,4,4,4,4,2,4,4,4,4,4,2,3,4,3,3,3,4
"METU",1994,1,4,1,1,2,1,9,0,1,20,36,35.3,36.7,39.911697387695,69,6,3,2,2,1,NA,4,4,4,1,4,1,4,4,1,NA,2,8,3,1,8,1,1,NA,1,NA,NA,NA,NA,NA,NA,NA,NA,NA,NA,3,2,2,4,2,3,1,2,1,2,3,1,4,4,4,5,4,3,3,4,4,4,3,4,5,4,5,4,4,4,4,4,2,4,4,4,4,4,4,4,4,2,2,4,4,2,4,6,4,5,6,6,6,6,5,6,5,6,5,3,2,3,5,6,2,2,6,5,6,5,2,2,3,3,3,2,7,3,2,4,4,2,5,4,4,4,4,4,4,4,4,4,3,6,5,6,6,2,2,2,2,4,3,2,3,3,3,4,3,3,4,2,3,2,2,3,4,6,4,4,4,3,2,2,4,4,3,4,3,3,5,4,4,2,2,4,4,3,3,4,3,4,3,2,4,4,4,4,4,4,4,4,3,3,3,4,4,5,5,2,2,4,4,2,4,3,2,4,2,4,4,4,2,3,4,2,3,2,2
"VCU",1994,2,7,1,4,2,1,10,0,2,NA,36.02777778,36.05555556,36,39.343002319336,92,12.22222222,5,1,1,1,NA,4,4,4,1,8,1,2,2,1,NA,2,8,3,8,8,1,2,4,2,"CHS Student Leadership Council",NA,NA,NA,NA,7,NA,NA,NA,NA,3,2,2,4,3,4,2,3,2,3,3,4,4,4,3,3,2,2,2,3,2,2,2,3,5,2,2,4,4,3,4,1,2,2,1,5,3,4,4,4,3,2,4,4,3,4,3,3,2,4,7,5,3,1,5,3,2,4,5,3,5,2,5,2,1,2,1,2,2,3,1,2,2,1,1,1,1,1,1,2,2,1,2,4,4,4,4,4,4,3,5,5,7,7,6,6,7,6,6,2,1,1,1,1,2,2,2,1,2,1,1,1,2,2,1,5,7,6,4,6,6,3,2,5,4,4,1,4,3,2,2,5,4,1,4,4,2,2,4,2,2,3,3,4,4,4,3,4,4,3,4,3,2,2,2,2,4,4,4,1,1,3,3,4,2,1,2,3,4,3,2,2,1,4,2,3,2,1,4
"Serbia",1994,2,7,2,3,2,1,31,0,2,NA,36.05,36,36.1,44.818603515625,53,6,6,1,2,1,NA,4,4,5,NA,4,4,2,2,1,NA,2,4,1,NA,NA,1,1,NA,1,NA,NA,NA,NA,NA,NA,NA,NA,NA,NA,3,2,3,5,4,5,1,2,2,3,3,5,4,4,4,3,3,4,4,4,4,3,3,3,5,2,4,2,1,1,1,1,1,1,1,1,4,1,4,3,4,1,1,1,1,1,3,4,4,4,4,4,4,4,4,4,4,4,4,4,4,4,4,4,4,4,4,4,4,4,4,4,4,4,4,4,4,4,4,4,4,4,4,4,4,4,5,4,4,3,4,3,7,5,5,5,6,6,6,4,3,1,4,4,2,3,3,3,3,2,2,2,1,2,2,5,8,6,7,7,6,8,3,4,4,4,2,2,4,3,2,4,2,2,1,4,4,4,3,3,5,3,3,3,3,4,3,3,2,3,4,4,3,1,3,1,1,4,2,2,2,4,3,2,5,4,2,4,4,4,4,5,2,3,4,5,4,3,3
"SMU",1994,2,7,2,4,2,1,0,0,2,NA,36.05,36,36.1,1.2931060791016,71,26,5,1,1,1,NA,4,4,5,NA,8,6,8,8,1,NA,2,8,3,1,5,1,1,NA,2,"SMU Ambassadors","Emerging Markets Club","AMT","SMU DIving",NA,15,3,4,1,NA,4,3,4,4,3,5,3,4,3,4,4,4,3,2,3,3,3,3,2,2,3,4,3,3,5,3,3,2,4,2,4,2,3,4,2,4,4,3,2,3,3,4,4,4,4,3,3,2,2,2,3,6,2,2,2,2,2,6,2,2,2,3,2,2,2,2,2,3,2,2,2,2,2,2,2,2,2,2,3,2,4,2,3,5,5,5,5,5,5,5,5,5,4,5,5,5,5,5,5,2,2,2,2,2,2,2,4,2,2,2,2,2,2,2,2,5,8,5,6,6,4,6,2,3,3,3,3,3,3,3,3,3,3,3,3,3,3,3,3,3,3,4,3,2,4,4,4,4,4,4,4,4,2,2,2,2,2,4,2,4,2,2,2,4,2,2,2,4,4,4,4,4,2,4,4,5,5,3,4
"METU",1994,2,6,2,3,2,1,0,2,1,5,36.05,36,36.1,39.911697387695,60,9,3,2,2,1,NA,4,4,5,NA,8,4,8,8,1,NA,2,8,1,NA,NA,4,1,NA,2,"odt¨¹l¨¹ aslanlar","odt¨¹ tekvando",NA,NA,NA,7,7,NA,NA,NA,3,3,2,3,2,2,4,2,1,2,3,2,3,4,3,2,2,3,2,3,3,2,2,3,4,2,3,4,4,4,4,4,3,4,2,4,4,4,4,4,4,3,4,4,3,3,4,5,3,3,4,2,5,5,3,4,3,4,2,2,2,2,6,3,2,4,2,4,4,5,5,5,3,6,2,2,3,2,5,2,4,2,3,4,4,4,4,4,5,4,3,3,5,6,6,6,5,5,5,2,3,2,2,2,3,3,3,3,3,2,2,2,2,2,2,4,5,5,1,3,2,2,2,3,4,5,4,5,4,4,5,4,4,1,1,3,4,3,4,4,4,4,3,2,5,5,5,4,4,4,5,2,2,2,2,3,4,4,3,2,2,2,2,4,4,4,2,4,3,4,4,4,2,4,4,4,4,4,2
"Kassel",1994,2,7,1,4,2,1,6,2,2,NA,36.05,35.5,36.6,51.316696166992,54,1,1,1,2,1,NA,4,4,5,NA,2,2,7,5,2,1,2,7,1,NA,NA,3,1,NA,1,NA,NA,NA,NA,NA,NA,NA,NA,NA,NA,2,3,4,4,2,4,3,4,2,3,4,2,2,2,3,3,3,3,2,3,3,3,2,3,4,2,3,4,4,2,4,4,3,4,3,5,5,4,4,4,4,2,4,4,3,2,4,5,5,3,5,7,5,4,6,5,2,5,3,3,3,5,5,5,2,2,2,5,1,2,1,1,1,1,3,2,2,3,1,3,4,1,5,4,5,5,5,5,3,2,5,5,3,4,4,4,3,3,3,2,1,2,1,2,2,2,1,2,2,2,1,2,2,3,1,5,6,6,4,3,3,6,2,2,2,5,4,4,4,3,4,2,2,1,2,4,5,1,4,2,3,5,4,4,4,5,4,4,3,4,4,5,2,2,3,2,4,5,3,3,2,2,3,4,4,2,2,3,4,4,4,3,2,4,5,5,4,4,3
"Tsinghua",1994,1,5,1,4,2,1,2,0,2,0,36.05,35.8,36.3,39.928894042969,22,8,7,3,2,1,0,4,2,5,0,5,1,5,3,1,1,2,3,1,1,2,1,2,1,1,"°à¼¶","Ñ§ÉúÒÕÊõÍÅ","±çÂÛ¶Ó","¶ÁÊé»á","ÅÜ²½¾ãÀÖ²¿",20,15,7,5,5,4,4,4,4,4,4,3,4,2,4,4,4,4,2,2,2,2,2,1,2,2,2,2,2,4,1,1,4,4,3,4,4,4,2,4,4,5,4,5,3,4,3,5,4,3,3,4,6,1,2,2,3,2,3,5,3,1,2,2,4,6,2,3,2,2,6,2,4,2,2,3,3,2,2,2,3,3,2,2,3,5,3,2,5,5,5,5,5,5,5,4,5,6,2,4,6,6,6,6,2,2,4,2,2,2,3,2,3,1,3,2,5,2,4,2,4,6,6,4,5,6,6,2,4,4,4,2,2,3,3,4,3,4,2,2,2,2,2,2,4,3,4,2,4,4,4,3,5,5,4,4,4,2,2,2,4,4,4,4,3,2,4,3,4,4,2,3,4,3,4,4,2,2,4,3,4,4,4,2
"Poland",1994,2,6,2,4,2,1,42,26,2,NA,36.1,36,36.2,51.63330078125,57,1,9,1,2,1,NA,4,2,5,1,5,2,2,2,1,NA,2,8,2,1,1,1,1,NA,1,NA,NA,NA,NA,NA,NA,NA,NA,NA,NA,3,2,4,4,2,4,2,2,2,4,4,2,5,2,3,3,4,4,4,4,3,4,4,3,4,4,2,2,4,2,4,1,2,2,2,2,2,4,4,2,2,1,2,2,4,1,2,2,1,2,2,4,2,2,2,4,2,6,2,2,1,2,6,2,1,5,3,6,2,5,3,5,3,6,3,2,6,5,5,6,7,4,2,4,4,4,5,4,4,2,4,4,1,2,1,1,1,1,1,1,2,1,2,1,2,2,2,2,2,1,1,1,2,4,2,3,2,2,1,1,3,2,2,4,2,4,2,5,2,4,4,4,2,2,1,2,4,2,4,4,2,4,5,3,4,2,2,2,2,2,2,2,2,2,3,1,2,4,4,2,1,4,4,4,3,1,1,2,4,1,1,2,5,2,1,2,2,3,1
"Kassel",1994,2,4,1,3,2,1,5,0,2,NA,36.1,35.9,36.3,51.316696166992,71,1,1,1,2,1,NA,4,2,4,1,3,2,6,4,1,NA,2,8,1,NA,NA,5,1,NA,1,NA,NA,NA,NA,NA,NA,NA,NA,NA,NA,3,2,4,3,3,4,1,3,2,3,4,3,4,4,2,4,2,2,3,2,4,2,3,3,4,2,3,3,4,2,3,4,2,2,4,4,2,3,3,2,2,1,2,3,1,2,3,5,3,2,4,4,5,4,3,2,2,2,2,2,2,3,5,4,2,2,2,4,2,2,2,2,2,1,3,2,2,3,2,3,4,1,3,4,5,4,5,5,4,2,4,4,6,6,6,6,5,4,5,3,2,3,2,3,2,3,2,1,3,2,2,2,2,3,2,5,7,6,5,6,7,7,2,4,3,4,2,3,2,3,4,2,2,1,4,4,3,3,1,3,3,4,4,3,4,4,4,5,4,3,4,4,2,2,2,3,2,3,2,3,3,2,3,4,3,2,3,4,4,4,4,3,2,4,4,3,4,4,4
"METU",1994,1,7,2,4,2,1,11,0,2,NA,36.1,36,36.2,39.911697387695,62,5,3,2,2,1,NA,4,4,5,NA,5,5,8,8,1,NA,2,8,1,NA,NA,1,2,8,2,"Gen? Giri?imciler Toplulu?u","Unifeb ODT?",NA,NA,NA,7,5,NA,NA,NA,2,5,3,2,4,3,4,4,2,2,5,2,5,2,1,2,4,2,1,3,1,2,2,2,2,1,1,4,4,4,4,5,2,4,1,4,4,2,4,4,5,2,4,2,3,4,5,5,4,5,6,7,5,6,5,6,2,6,3,2,2,1,5,1,2,2,2,2,2,6,2,2,2,3,2,1,2,2,2,2,2,2,2,5,5,4,5,5,4,3,4,5,6,5,6,6,7,6,5,2,4,1,3,1,4,4,4,4,2,1,2,2,1,4,2,3,4,5,3,1,3,3,4,1,4,5,4,2,4,5,2,4,2,1,1,5,5,2,4,4,5,5,4,2,5,5,5,5,4,4,5,4,1,2,1,2,5,5,4,2,1,4,4,5,5,5,2,4,2,4,5,5,1,4,4,5,4,2,1
"METU",1994,1,3,2,2,2,1,NA,NA,2,NA,36.1,35.8,36.4,39.911697387695,72,8,3,2,3,1,NA,4,4,5,NA,6,3,7,7,1,NA,2,8,1,NA,NA,1,1,NA,1,NA,NA,NA,NA,NA,NA,NA,NA,NA,NA,4,2,4,2,3,2,3,3,2,3,4,4,1,4,4,4,4,4,3,3,3,4,4,3,5,4,2,4,4,4,4,4,3,4,2,4,5,5,5,5,4,2,4,2,1,2,4,5,5,2,6,6,3,5,6,3,4,2,6,4,2,6,5,6,2,6,6,4,3,6,4,2,4,2,6,3,6,4,2,5,3,4,3,3,4,2,4,5,4,4,3,2,7,6,6,6,4,5,6,4,4,4,3,4,4,4,4,2,4,3,3,3,2,2,2,5,7,5,2,1,2,1,3,3,2,4,4,2,3,4,3,2,2,2,3,4,4,2,4,4,3,3,2,2,4,4,4,4,4,4,4,4,4,3,3,2,2,2,4,1,1,4,4,4,4,4,2,4,2,4,3,4,1,1,4,2,3,3,2
"METU",1994,1,4,2,4,2,1,8,0,1,20,36.1,35.6,36.6,39.911697387695,60,9,3,2,4,1,NA,4,4,5,NA,8,5,3,3,1,NA,2,8,1,NA,NA,2,1,NA,2,"IEEE","Omim",NA,NA,NA,12,9,NA,NA,NA,3,2,3,1,2,4,1,2,1,2,5,2,3,4,3,3,2,3,3,3,4,3,3,3,4,1,3,4,3,4,4,4,3,4,4,4,4,4,4,4,4,3,2,2,2,4,4,6,5,5,4,4,7,6,5,5,6,6,6,6,5,1,5,4,1,4,2,3,2,2,3,3,2,2,1,1,1,2,6,1,2,2,3,5,3,4,4,5,1,1,2,3,7,6,7,6,6,6,6,4,4,4,4,4,4,4,4,4,5,4,2,3,2,3,2,3,3,5,5,5,4,3,3,2,4,5,4,4,5,3,5,5,4,1,4,5,3,4,5,5,5,5,3,2,4,5,5,5,5,5,5,5,3,3,2,4,5,5,4,2,4,5,2,3,5,5,3,4,4,5,5,4,3,2,5,3,2,5,5
"Kassel",1994,2,7,2,5,2,1,0,0,2,NA,36.1,35.7,36.5,51.287796020508,77,5,1,1,2,1,NA,4,4,5,NA,5,2,8,1,2,8,2,8,1,NA,NA,3,2,1,1,NA,NA,NA,NA,NA,NA,NA,NA,NA,NA,3,4,4,4,3,4,2,4,2,2,4,3,3,2,3,4,4,3,3,2,3,3,2,3,3,2,3,4,4,4,4,4,3,4,3,4,4,4,3,4,4,2,2,3,2,4,3,4,4,4,6,4,4,5,6,4,4,4,5,4,4,5,5,4,4,4,4,5,4,4,4,4,4,4,4,4,4,4,5,4,6,4,6,4,4,4,4,4,3,4,4,4,6,5,4,4,5,5,3,2,3,2,3,2,3,4,2,2,2,2,2,3,2,3,2,4,6,6,2,3,4,1,2,2,3,4,1,3,2,2,3,5,4,1,2,4,3,3,2,3,2,3,3,2,4,3,3,3,3,4,4,4,3,3,3,1,1,4,3,2,1,3,2,3,4,2,2,4,2,2,2,3,3,4,3,3,2,1,4
"SMU",1994,1,4,2,2,2,1,0,0,2,NA,36.1,36.1,36.1,1.2931060791016,70,27,5,1,2,1,NA,4,4,5,NA,5,1,4,4,1,NA,2,5,1,NA,NA,2,1,NA,1,NA,NA,NA,NA,NA,NA,NA,NA,NA,NA,2,2,2,2,1,3,1,2,1,2,4,3,1,2,2,2,2,2,2,2,4,2,2,2,2,4,4,2,4,4,4,4,5,4,4,4,4,4,4,4,4,4,4,4,4,4,4,4,4,4,4,4,4,4,4,4,4,4,4,4,4,4,4,4,4,4,4,4,4,4,4,4,4,4,4,4,4,4,4,4,4,4,4,5,4,5,5,5,5,5,4,4,5,7,7,7,4,2,3,4,4,3,2,4,4,2,2,2,2,2,1,2,2,2,2,2,2,1,1,1,2,2,5,5,5,4,2,4,2,2,2,5,4,1,5,5,2,5,5,3,2,4,5,5,3,3,3,3,4,2,5,5,3,4,3,1,1,4,4,5,2,4,5,4,3,3,3,4,2,4,4,4,2,5,4,5,2,5,2
"Tsinghua",1994,1,6,2,2,2,1,0,0,2,0,36.1,36,36.2,30.580093383789,64,12,7,3,2,1,0,4,4,5,0,5,2,8,6,1,1,2,8,1,1,1,1,2,1,1,"Éç»áÈÏÖªÌÖÂÛÐ¡×é","±±º£µÀ´óÑ§2016Äê10ÔÂÉú",NA,NA,NA,6,7,NA,NA,NA,3,4,3,4,3,4,1,2,2,4,3,2,4,3,3,4,4,2,3,5,4,2,4,3,4,4,4,4,5,4,4,4,5,2,5,4,5,4,4,4,3,2,2,3,2,4,5,6,6,5,6,6,3,2,5,2,3,5,3,2,3,5,2,5,2,3,3,5,2,2,2,2,3,3,3,3,2,2,3,3,5,2,3,4,4,4,4,5,3,4,2,3,5,2,4,5,7,5,6,2,2,2,4,4,4,4,2,2,4,2,2,1,2,2,2,4,5,3,2,2,2,4,2,4,5,5,2,4,3,4,2,4,3,1,2,2,4,2,3,4,2,2,4,5,4,3,2,4,3,3,4,2,3,3,2,2,5,4,4,4,2,4,1,4,2,2,2,4,2,4,2,5,2,5,2,3,4,2,3
"Tsinghua",1994,1,7,2,2,2,1,2,0,2,0,36.15,36.2,36.1,30.666702270508,76,13,7,3,2,1,0,4,4,5,0,7,4,5,4,1,1,2,7,1,1,1,3,2,1,2,NA,NA,NA,NA,NA,NA,NA,NA,NA,NA,3,4,2,4,4,4,2,3,3,2,2,2,3,2,2,2,3,4,4,3,2,4,4,2,3,4,2,3,2,2,2,2,2,2,2,4,2,3,2,2,2,2,2,2,2,2,2,7,3,5,5,4,4,4,5,4,4,4,3,4,2,5,7,5,2,5,3,3,3,1,2,3,2,3,4,3,4,2,2,4,3,3,3,3,4,4,3,4,4,4,3,4,5,2,4,6,6,5,5,3,3,3,3,3,3,3,3,3,3,3,3,3,3,3,3,5,6,4,2,2,1,4,2,4,4,4,2,3,3,3,3,3,2,2,2,3,3,3,3,3,3,3,3,3,3,3,3,3,3,3,3,3,3,3,3,3,3,3,4,3,2,4,4,3,4,3,2,3,4,3,2,3,3,3,3,3,3,3,2
"Oslo",1994,2,6,2,2,2,1,NA,NA,2,NA,36.15,35.8,36.5,59.916702270508,75,0,4,1,2,1,NA,4,4,5,NA,4,4,7,5,1,NA,2,7,3,1,5,2,1,NA,1,NA,NA,NA,NA,NA,NA,NA,NA,NA,NA,2,2,4,5,5,4,3,3,2,3,3,4,4,3,5,5,2,2,3,3,3,3,2,3,4,1,3,1,4,2,2,4,1,1,2,4,4,4,3,4,1,1,3,2,3,1,3,5,2,1,5,4,4,4,6,4,1,5,1,1,4,6,5,7,1,1,2,5,3,2,3,3,5,3,3,3,4,2,6,1,3,5,3,5,5,4,5,5,5,5,5,5,5,4,5,3,6,4,4,4,5,1,4,2,3,5,1,2,3,4,2,1,2,2,1,5,6,4,2,4,4,4,1,3,4,4,4,2,1,2,3,1,3,1,3,4,4,2,3,3,2,3,4,2,4,3,4,1,3,4,1,4,1,2,1,3,4,3,3,4,2,3,3,4,3,2,2,4,4,3,3,4,1,1,2,4,4,3,3
"SMU",1994,1,7,2,4,2,1,0,0,2,NA,36.15,36.4,35.9,1.2931060791016,70,26,5,1,2,1,NA,4,4,5,NA,5,5,5,5,2,3,2,8,1,NA,NA,1,1,NA,1,NA,NA,NA,NA,NA,NA,NA,NA,NA,NA,3,4,5,5,3,4,4,4,4,5,4,3,3,4,3,4,2,2,3,3,4,3,3,3,2,3,4,2,3,3,3,2,2,2,2,4,2,3,2,4,2,2,2,2,2,2,2,4,4,4,4,4,4,4,4,4,4,4,4,4,4,4,4,4,4,4,4,4,4,4,4,4,4,4,4,4,4,4,4,4,4,4,4,4,4,4,4,4,4,4,4,4,3,5,5,5,4,4,4,3,3,2,3,3,2,3,3,3,3,2,3,3,2,3,2,4,5,4,5,5,5,5,2,3,4,4,3,3,3,3,3,3,4,3,4,4,4,4,4,3,3,3,4,4,4,3,3,3,4,3,4,4,2,2,3,3,3,3,3,3,3,3,5,3,3,3,3,3,3,3,3,3,3,3,3,4,4,3,3
"METU",1994,2,6,2,3,2,1,0,0,1,10,36.15,35.8,36.5,39.911697387695,64,6,3,2,2,1,NA,4,4,5,NA,4,1,5,5,1,NA,2,5,1,NA,NA,1,1,NA,1,NA,NA,NA,NA,NA,NA,NA,NA,NA,NA,4,4,3,5,3,4,2,3,2,2,3,2,4,2,2,3,3,2,3,3,3,3,3,4,4,3,3,3,3,3,4,4,2,2,3,2,4,4,4,4,4,3,2,3,3,3,3,4,3,4,3,5,3,6,4,4,4,4,4,5,5,2,5,5,3,3,3,3,4,6,5,5,5,5,2,3,3,2,4,3,3,2,3,5,5,5,5,5,5,5,5,5,5,5,5,5,4,4,4,1,3,3,5,2,3,2,3,2,3,2,3,3,3,4,3,1,3,3,3,2,2,1,2,2,4,4,2,2,2,3,2,4,4,2,4,4,4,4,2,4,3,4,4,4,4,3,4,4,4,4,4,4,3,4,2,2,3,4,3,4,3,3,2,3,3,2,3,4,4,4,4,4,3,4,4,4,3,2,3
"METU",1994,1,6,1,4,2,1,NA,NA,2,NA,36.15,36,36.3,39.911697387695,58,7,3,2,2,1,NA,4,4,4,4,5,2,7,4,1,NA,2,8,1,NA,NA,1,2,8,2,"biyogen","evrim a?ac?","AGT","ART","Lab toplant?lar?",7,7,7,7,7,2,2,4,2,2,3,2,4,2,1,3,2,4,4,3,4,2,2,4,4,4,2,4,3,5,1,5,5,5,5,5,5,4,4,4,4,4,3,3,4,4,4,3,2,4,2,3,5,2,3,6,6,3,6,2,1,4,2,6,4,2,2,7,5,5,5,2,2,3,6,2,3,2,2,2,2,2,2,3,1,2,2,5,5,4,5,5,5,5,5,5,5,3,6,5,4,5,5,5,5,5,2,4,5,4,5,4,2,4,5,1,5,2,4,1,2,2,2,1,2,2,1,3,2,5,3,2,2,4,5,1,5,5,5,5,5,3,5,2,4,5,5,2,3,4,3,3,4,3,3,5,5,2,2,3,4,4,4,5,2,1,5,4,4,4,4,4,5,3,5,5,5,2,2,4,5,3,2,3
"VCU",1994,2,7,2,4,2,1,4,0,2,NA,36.16666667,36.22222222,36.11111111,NA,81,14.44444444,5,1,2,1,NA,4,4,5,NA,3,1,3,3,1,NA,2,4,1,NA,NA,1,1,NA,2,"Discrimination Lab",NA,NA,NA,NA,10,NA,NA,NA,NA,3,4,4,4,4,3,3,2,2,3,3,4,5,3,2,5,2,3,2,2,3,2,2,2,4,2,2,2,4,2,4,2,2,2,2,2,4,4,2,4,2,2,2,2,2,4,2,2,2,2,2,2,5,2,2,3,2,6,2,2,2,2,2,2,3,2,3,2,3,2,2,2,3,3,3,3,3,3,2,3,3,3,6,4,4,4,4,4,4,2,3,4,7,5,5,4,5,5,5,2,2,1,2,2,2,2,2,2,2,2,2,2,2,4,2,3,4,2,2,2,2,3,3,3,4,4,2,2,2,4,4,2,2,2,3,4,4,4,2,2,2,2,4,3,4,4,2,4,2,2,2,4,2,2,2,2,4,4,3,4,2,4,4,4,4,4,4,3,4,4,2,2,2,4,2,2,2,2,2
"VCU",1994,2,7,2,3,2,1,NA,NA,2,NA,36.16777778,36.05555556,36.28,37.552200317383,68,10.55555556,5,1,2,1,NA,4,4,5,NA,8,3,8,8,2,4,2,8,3,1,8,1,2,4,2,NA,NA,NA,NA,NA,NA,NA,NA,NA,NA,3,4,4,2,3,3,4,3,3,3,3,2,2,3,4,2,3,3,2,2,3,4,4,2,3,3,3,3,3,3,3,2,3,3,4,3,1,4,3,4,4,1,3,4,4,2,2,2,3,4,2,4,2,2,2,4,2,6,2,2,2,4,5,2,2,2,2,2,2,5,2,3,4,6,2,2,2,3,2,3,2,2,2,3,4,2,2,3,3,2,2,3,5,4,4,4,2,5,3,3,4,1,4,2,3,3,4,4,3,2,2,2,4,4,4,3,3,1,2,5,6,6,2,2,2,4,4,4,3,3,4,2,2,2,2,4,4,2,4,3,2,2,2,4,4,3,3,3,3,2,3,3,3,3,4,3,4,5,3,3,3,3,2,2,3,2,3,2,3,2,4,3,3,3,2,3,3,2,4
"VCU",1994,1,4,2,3,2,1,4,0,1,0,36.18611111,36.24444444,36.12777778,37.552200317383,91,14.44444444,5,1,2,1,NA,4,4,5,NA,2,2,4,3,2,2,2,3,1,NA,NA,2,1,NA,1,NA,NA,NA,NA,NA,NA,NA,NA,NA,NA,2,3,3,4,2,2,4,1,3,3,4,3,4,2,3,3,3,2,3,3,3,2,3,5,4,2,2,4,4,2,3,4,2,3,3,4,5,3,2,4,3,2,2,4,2,4,3,6,5,5,6,4,6,5,5,5,5,6,4,6,5,5,4,4,3,3,3,2,3,3,3,5,2,3,3,1,5,3,6,1,5,2,3,4,3,4,2,3,4,3,4,5,6,6,6,5,7,7,5,5,3,2,4,4,5,4,4,3,4,4,2,4,2,2,4,4,6,6,6,5,6,1,2,4,4,4,2,4,4,2,2,5,4,4,3,4,4,2,3,4,4,5,4,4,4,5,5,5,3,4,3,2,2,3,3,2,4,2,2,4,3,2,2,4,2,4,2,3,3,4,4,3,2,4,4,4,3,1,3
"VCU",1994,2,7,1,5,2,1,0,0,2,NA,36.19444444,36.72222222,35.66666667,37.557693481445,52,7.222222222,5,1,2,1,NA,4,4,5,NA,8,5,5,4,2,1,2,5,1,NA,NA,1,2,3,1,NA,NA,NA,NA,NA,NA,NA,NA,NA,NA,3,4,4,5,5,4,3,4,4,3,5,4,4,4,2,3,4,3,2,2,2,2,2,1,5,2,2,4,4,4,4,3,3,4,2,4,5,4,5,4,3,2,2,3,2,2,5,2,1,1,2,1,2,2,1,1,1,1,1,1,1,1,1,2,1,1,1,3,1,1,1,1,1,1,1,1,1,1,1,1,1,1,1,5,5,5,5,5,5,5,5,5,4,6,4,5,5,5,5,1,5,1,1,1,1,1,1,1,1,1,2,1,2,2,1,4,5,6,2,2,1,1,3,5,4,4,1,2,4,4,3,5,4,3,4,4,2,4,2,2,3,5,3,2,3,5,4,5,5,4,4,4,1,1,3,2,5,4,4,1,1,4,4,4,3,3,4,3,5,3,3,4,2,3,2,2,2,3,2
"Oxford",1994,2,7,2,4,2,1,1,0,2,NA,36.2,35.8,36.6,51.75,88,-2.222222222,5,1,2,1,NA,4,3,5,NA,8,6,8,8,1,NA,1,NA,3,1,8,2,2,1,1,NA,NA,NA,NA,NA,NA,NA,NA,NA,NA,3,3,4,3,3,5,2,4,3,2,4,4,4,3,2,5,3,2,2,3,3,3,2,3,5,1,3,2,1,1,1,2,1,3,1,3,3,3,3,3,2,1,3,1,3,1,2,2,1,3,2,2,2,1,5,3,2,3,1,2,1,5,2,5,1,2,2,6,3,3,2,3,3,3,3,4,3,1,3,7,5,4,2,2,2,2,3,1,1,1,1,1,4,4,4,3,5,5,5,2,4,1,4,3,1,2,2,1,4,2,1,1,2,2,2,4,6,5,2,2,6,1,1,1,2,5,5,5,1,3,3,2,2,1,1,2,2,1,2,4,3,3,3,2,5,3,4,3,2,5,3,2,2,2,2,2,1,4,2,4,3,2,1,5,1,2,2,3,3,4,3,4,3,3,2,4,2,2,2
"Serbia",1994,2,7,2,4,2,1,1,0,2,NA,36.2,36.1,36.3,44.818603515625,65,8,6,1,2,1,NA,4,4,5,NA,6,6,5,4,1,NA,2,8,1,NA,NA,3,1,NA,2,"Politi?ka stranka(ne bih da navodim njeno ime)",NA,NA,NA,NA,5,NA,NA,NA,NA,4,4,2,3,2,3,2,3,2,3,4,2,3,3,3,3,1,2,2,2,3,3,2,4,5,4,2,2,1,1,2,1,1,4,3,4,4,1,1,3,3,2,1,1,1,2,1,3,2,2,2,5,3,3,2,6,1,3,1,1,4,8,2,8,1,4,NA,4,NA,4,2,8,3,NA,1,1,1,1,8,4,NA,1,NA,4,5,4,5,5,5,4,4,5,6,7,7,7,6,5,5,2,2,1,2,2,4,4,1,1,1,2,2,2,2,3,3,4,3,5,1,1,3,3,1,5,3,2,1,5,1,2,3,5,5,4,4,4,4,4,4,3,3,4,4,4,5,3,1,1,1,3,5,2,3,2,2,1,4,3,5,5,1,3,1,3,4,1,1,3,4,1,1,4,5,5,2,3,3,3,2
"METU",1994,1,6,1,2,2,1,8,0,1,20,36.2,35.9,36.5,39.911697387695,62,5,3,2,2,1,NA,4,4,4,1,3,2,7,7,1,NA,2,5,3,4,3,1,1,NA,1,NA,NA,NA,NA,NA,NA,NA,NA,NA,NA,3,2,1,1,1,3,1,2,2,1,2,1,3,3,3,3,1,2,2,3,3,1,2,3,4,3,3,2,2,2,3,2,2,3,1,4,3,4,2,3,2,2,2,2,2,4,2,3,3,3,3,3,3,3,4,2,3,1,3,3,6,3,3,4,2,3,3,2,2,4,4,3,3,2,2,2,6,2,3,5,4,4,3,5,5,5,5,5,5,5,5,5,7,4,5,4,6,3,7,3,4,2,3,2,3,5,4,3,4,2,2,3,4,4,1,1,3,2,2,2,4,1,4,4,3,4,3,2,2,3,3,4,4,3,4,4,4,3,4,5,3,3,4,3,4,4,4,4,4,4,4,4,4,2,3,2,2,3,3,4,2,3,3,4,3,4,2,3,4,4,4,4,4,4,4,4,4,3,4
"METU",1994,1,6,1,4,2,1,2,0,2,NA,36.2,36,36.4,39.911697387695,71,8,3,2,2,1,NA,4,4,5,NA,6,6,8,4,1,NA,2,8,1,NA,NA,1,1,NA,2,"odt¨¹ tenis toplulu?u",NA,NA,NA,NA,2,NA,NA,NA,NA,4,4,5,4,4,4,3,4,4,4,4,4,5,2,3,3,2,3,2,3,2,3,3,3,4,3,2,2,3,4,3,3,2,2,1,4,4,4,4,4,4,2,2,2,3,3,3,5,2,2,2,4,2,4,3,2,2,2,4,2,2,2,3,3,1,1,2,2,2,6,2,2,2,2,2,2,2,1,2,2,2,2,2,5,5,5,5,5,4,4,4,4,5,5,4,5,4,5,6,3,2,2,4,2,2,1,3,1,3,2,3,3,4,3,4,3,3,3,1,2,2,2,2,2,2,5,4,4,4,4,4,4,3,3,2,4,4,2,3,1,4,4,4,3,4,5,4,4,5,4,4,4,2,4,2,4,4,5,4,2,2,4,3,4,4,1,2,3,3,4,4,4,4,4,2,2,3,2,2
"Tsinghua",1994,2,4,1,3,2,1,0,0,2,0,36.2,36.3,36.1,30.666702270508,62,15,7,3,2,1,0,4,2,5,0,4,6,5,3,1,1,2,8,1,1,1,8,2,1,2,"na","na","na","na","na",NA,NA,NA,NA,NA,3,3,4,4,4,2,3,4,3,4,4,4,3,2,3,3,3,3,2,2,3,2,4,2,4,2,2,2,3,2,3,3,3,2,3,4,4,2,3,3,2,2,3,4,2,3,3,2,2,2,2,4,2,2,2,2,4,2,2,4,2,2,2,2,2,2,2,2,2,2,2,2,2,2,2,2,2,2,2,2,2,2,2,4,4,4,4,4,4,4,4,4,3,2,4,5,4,3,3,3,3,3,2,4,2,4,2,2,3,3,2,3,2,3,2,4,5,5,3,4,2,5,2,4,4,4,2,3,3,3,3,2,2,4,3,4,2,3,2,4,3,2,3,3,4,4,4,4,3,4,4,3,2,2,2,4,3,4,3,3,2,4,3,3,4,4,3,4,4,4,4,4,2,2,4,4,3,2,4
"METU",1994,2,7,1,4,2,1,0,6,2,NA,36.2,35.7,36.7,39.911697387695,64,2,3,2,2,1,NA,4,4,2,1,5,4,3,2,1,NA,2,8,1,NA,NA,1,1,NA,1,NA,NA,NA,NA,NA,NA,NA,NA,NA,NA,3,5,3,5,2,4,1,3,1,2,2,3,4,3,4,4,3,3,3,3,4,3,3,5,5,2,4,3,4,4,4,5,3,4,2,5,5,5,5,5,5,1,2,2,3,3,5,7,5,6,7,6,7,6,5,6,5,6,2,2,1,2,7,2,1,1,2,5,3,2,2,5,2,1,2,1,2,1,2,5,5,2,2,4,4,4,4,4,4,2,3,3,6,5,5,5,6,6,6,3,2,3,2,2,4,2,2,4,2,2,2,1,3,2,2,5,6,5,1,4,4,1,1,1,5,5,2,4,5,3,4,5,4,1,3,4,4,3,4,4,4,4,4,5,3,5,4,5,3,3,4,4,1,4,1,2,4,4,2,3,2,4,4,4,3,3,1,4,2,5,4,4,2,5,4,2,4,1,4
"UCSB",1994,1,7,1,5,2,1,2,0,2,NA,36.22222222,36.05555556,36.38888889,34.0184021,57,6.111111111,5,1,2,1,NA,4,2,4,1,8,1,8,8,1,NA,2,6,3,1,7,1,1,NA,1,NA,NA,NA,NA,NA,NA,NA,NA,NA,NA,4,4,1,4,2,4,4,3,1,3,4,3,5,2,2,3,1,3,1,3,2,3,2,2,4,3,3,4,4,2,4,3,3,2,4,4,4,4,4,4,3,1,2,2,2,1,4,3,3,3,2,2,6,5,3,3,1,3,1,3,2,4,6,2,1,2,1,1,1,1,1,1,1,1,1,1,1,1,1,1,1,1,1,5,4,5,5,5,5,5,5,5,5,6,5,4,6,5,5,1,1,1,1,1,2,1,1,2,2,1,1,1,1,3,1,3,3,5,2,3,3,2,1,4,5,4,1,2,4,5,4,4,4,1,5,3,3,4,2,2,4,3,4,2,4,4,4,4,4,4,4,4,2,2,2,2,4,4,4,2,2,2,5,2,2,2,3,3,4,2,2,3,2,4,3,3,3,1,3
"METU",1994,1,5,2,4,2,1,2,0,1,20,36.25,36.2,36.3,39.911697387695,62,5,3,2,2,1,NA,4,4,5,NA,3,3,3,3,1,NA,2,8,1,NA,NA,1,1,NA,1,NA,NA,NA,NA,NA,NA,NA,NA,NA,NA,1,2,5,4,3,2,1,1,3,3,4,2,3,3,3,4,3,2,2,3,4,3,3,3,4,3,2,1,1,1,1,2,2,2,1,1,4,1,3,4,3,1,1,1,1,1,3,6,2,6,2,2,5,2,2,2,5,2,6,2,1,5,2,2,2,3,2,3,5,2,5,5,2,5,5,6,2,2,6,3,6,5,6,5,4,5,5,4,3,1,4,3,7,7,7,7,7,7,7,2,3,2,2,4,2,3,2,1,3,1,1,1,4,3,2,3,4,1,1,1,2,3,4,4,4,4,3,2,2,2,2,4,2,3,2,2,4,2,4,4,3,4,4,3,4,4,4,3,3,3,3,3,2,2,4,2,1,3,2,1,4,3,2,4,2,4,1,3,1,4,4,4,2,4,3,3,2,2,2
"VCU",1994,2,7,2,4,2,1,6,0,2,NA,36.25,36.33333333,36.16666667,37.552200317383,97,11.11111111,5,1,2,1,NA,4,4,5,NA,3,1,3,3,1,NA,2,5,1,NA,NA,2,1,NA,2,"internship",NA,NA,NA,NA,12,NA,NA,NA,NA,2,3,4,4,2,3,4,3,3,4,2,3,4,3,2,4,3,2,3,3,2,2,4,3,5,2,4,4,4,2,4,3,1,1,3,1,4,3,3,2,2,3,1,1,2,2,2,2,4,2,2,2,4,2,3,6,2,3,2,2,2,1,3,2,3,4,3,4,3,3,3,2,2,6,2,1,1,3,4,3,4,3,3,4,4,4,4,4,3,2,2,4,6,6,5,4,5,4,4,2,4,2,4,3,2,3,2,2,2,2,2,2,2,2,2,4,4,4,1,1,1,3,5,1,4,4,3,1,4,5,1,4,2,2,2,4,4,3,2,2,3,2,4,4,4,5,3,4,3,3,4,4,3,2,2,1,4,4,2,2,2,2,3,2,2,2,4,3,4,4,2,2,2,2,4,3,3,2,2
"Oxford",1994,2,7,2,5,2,1,0,0,2,NA,36.25,35.8,36.7,51.75,88,-2.222222222,5,1,2,1,NA,4,2,5,NA,4,1,8,5,1,NA,2,8,1,NA,NA,4,1,NA,1,NA,NA,NA,NA,NA,NA,NA,NA,NA,NA,4,4,3,4,5,4,2,3,4,3,3,4,4,3,3,4,3,2,2,2,2,3,3,2,4,2,3,2,4,1,4,4,2,2,2,3,2,2,3,2,2,1,2,1,1,2,1,3,3,5,3,5,2,2,5,5,3,3,3,4,5,5,3,5,3,2,2,3,2,3,5,5,3,3,3,2,2,2,3,3,5,3,4,5,5,5,5,5,5,4,5,5,7,6,5,5,6,6,5,3,4,2,2,2,2,2,4,2,2,2,1,2,2,2,2,4,3,3,2,2,2,3,1,4,2,5,4,4,2,3,4,4,2,1,2,4,5,2,3,2,2,4,5,4,3,3,3,3,4,2,4,4,3,2,3,3,4,2,4,3,2,2,4,3,4,4,2,4,4,4,3,3,2,4,4,4,4,2,4
"Oslo",1994,1,6,1,2,2,1,NA,NA,2,NA,36.25,36,36.5,NA,48,0,4,1,1,1,NA,4,4,4,1,5,3,4,4,1,NA,2,8,1,NA,NA,1,1,NA,1,NA,NA,NA,NA,NA,NA,NA,NA,NA,NA,2,3,2,2,2,3,2,2,3,3,3,4,3,4,3,5,3,2,4,2,4,3,3,2,5,3,4,3,4,2,3,2,2,2,3,4,3,3,3,4,2,3,2,4,1,4,3,5,2,2,4,4,4,2,6,2,2,2,5,5,1,5,2,2,1,4,2,4,3,3,3,2,2,2,4,2,5,2,2,2,2,2,2,4,4,3,4,3,3,3,3,4,6,4,4,3,4,4,3,4,4,1,4,3,2,3,4,3,4,3,2,2,2,4,3,4,3,3,2,2,4,3,1,3,2,5,4,3,3,3,3,4,3,2,2,4,4,2,4,4,2,2,3,4,4,4,3,5,2,3,4,4,2,2,2,2,2,2,2,1,3,2,2,4,4,3,2,3,3,4,3,3,2,2,2,2,3,4,2
"Oxford",1994,1,6,1,3,2,1,0,0,2,NA,36.25,35.9,36.6,51.75,71,1.666666667,5,1,2,1,NA,4,2,5,NA,4,1,3,1,2,7,2,4,1,NA,NA,1,1,NA,1,NA,NA,NA,NA,NA,NA,NA,NA,NA,NA,3,4,3,3,4,5,2,2,2,3,3,4,4,3,3,3,2,2,2,2,3,2,3,2,4,2,3,3,4,2,4,3,2,3,2,3,4,2,2,2,2,2,4,3,3,2,3,3,2,2,2,2,4,2,2,4,2,4,2,3,2,2,2,5,2,3,2,3,2,2,2,2,2,2,2,2,3,2,2,2,2,2,2,4,4,4,4,4,3,3,3,4,5,5,4,4,4,4,5,2,3,2,2,2,2,3,2,2,2,2,3,3,2,2,2,4,3,4,2,2,2,2,3,3,4,3,3,2,3,2,2,3,2,2,4,3,3,3,3,3,2,4,3,3,4,4,4,4,3,4,4,4,2,2,3,2,2,3,3,3,2,3,2,3,2,2,4,3,2,2,2,2,3,2,2,2,2,4,2
"VCU",1994,2,6,2,4,2,1,1,0,2,NA,36.25,35.77777778,36.72222222,37.516006469727,91,14.44444444,5,1,2,1,NA,4,4,5,NA,4,2,4,4,1,NA,2,8,1,NA,NA,3,1,NA,2,"Tri Sigma",NA,NA,NA,NA,5,NA,NA,NA,NA,3,2,4,4,2,3,4,4,1,3,4,3,4,3,3,4,3,3,2,3,3,3,3,3,3,3,3,4,4,4,4,3,3,2,2,4,4,4,4,4,4,2,2,2,2,2,4,5,4,3,5,6,6,5,4,4,2,5,3,2,3,2,6,5,3,5,3,5,3,5,3,4,3,3,3,3,3,3,2,3,3,3,5,4,4,4,4,4,4,3,3,4,4,7,6,6,6,4,7,4,4,2,4,3,2,3,4,5,2,2,2,4,3,3,2,2,2,6,2,3,3,2,2,2,4,4,2,4,2,3,4,4,2,2,3,4,2,3,4,3,3,4,4,3,4,4,3,3,3,4,3,2,2,4,3,2,4,4,4,2,2,4,4,4,4,2,4,4,4,2,3,3,2,4,4,3,3,4,2
"METU",1994,2,4,1,4,2,1,3,0,1,20,36.25,35.8,36.7,39.911697387695,69,6,3,2,2,1,NA,4,4,4,1,2,2,3,3,1,NA,2,8,1,NA,NA,1,1,NA,1,NA,NA,NA,NA,NA,NA,NA,NA,NA,NA,4,3,5,2,2,3,3,4,5,5,5,3,4,3,3,3,2,2,2,2,2,2,2,3,4,1,2,3,4,3,4,3,3,5,1,5,3,5,3,4,4,4,4,4,1,3,4,6,7,6,6,7,7,6,7,7,4,7,7,2,1,7,7,6,2,6,4,6,6,6,6,6,6,5,2,4,3,3,7,6,6,3,3,4,5,4,4,5,5,5,5,5,7,4,3,3,5,5,5,3,3,2,3,3,2,4,3,2,3,2,3,2,2,5,1,3,2,2,1,2,1,1,1,4,1,4,5,5,2,3,5,1,2,1,1,2,5,1,5,5,2,2,2,2,3,3,4,3,5,3,2,4,3,1,2,3,5,4,5,1,2,5,4,2,5,2,1,1,3,2,1,5,2,5,4,4,3,2,2
"SMU",1994,2,7,2,5,2,1,0,0,2,NA,36.25,36.3,36.2,1.2931060791016,70,26,5,1,2,1,NA,4,4,5,NA,4,1,3,2,1,NA,2,8,1,NA,NA,1,1,NA,1,NA,NA,NA,NA,NA,NA,NA,NA,NA,NA,4,3,3,3,3,5,2,3,2,3,4,2,3,4,2,4,2,2,1,4,2,2,1,3,5,2,4,4,4,2,5,4,3,3,5,4,3,3,3,3,3,3,3,5,3,3,3,6,3,5,5,3,5,3,3,4,3,3,5,4,4,4,3,3,5,4,3,4,3,5,5,4,3,2,3,2,2,2,5,3,3,2,4,5,5,5,5,5,5,5,5,5,2,7,7,7,5,5,6,3,4,3,3,3,3,4,4,3,3,3,2,4,2,3,3,3,2,4,1,4,5,4,5,3,5,5,4,4,3,3,4,4,3,2,4,5,5,3,3,4,3,5,5,5,5,5,5,5,5,3,4,3,1,1,2,1,1,1,2,1,1,4,5,5,5,2,3,3,3,2,3,2,3,3,3,3,3,3,3
"VCU",1994,2,7,1,3,2,1,10,0,2,NA,36.27777778,36.22222222,36.33333333,38.863998413086,85,10.55555556,5,1,2,1,NA,4,4,5,NA,4,2,2,2,1,NA,2,5,1,NA,NA,1,1,NA,1,NA,NA,NA,NA,NA,NA,NA,NA,NA,NA,2,4,1,2,3,2,4,3,3,3,4,3,4,2,2,3,2,2,2,2,2,2,2,2,4,2,2,2,2,2,4,2,1,1,2,4,2,2,2,2,2,2,2,2,2,2,2,1,1,2,1,5,2,1,1,2,2,2,5,2,3,1,2,1,1,5,1,5,1,1,5,1,2,2,2,3,2,2,2,1,3,1,2,5,4,5,4,4,4,4,4,5,4,7,4,5,5,4,4,1,4,1,4,1,1,1,2,1,1,2,2,1,1,2,1,5,6,5,3,2,2,4,2,2,4,4,2,2,4,4,4,4,4,2,4,4,4,4,2,4,2,2,4,3,3,4,3,4,3,3,4,3,2,4,3,4,5,3,4,3,2,4,4,4,4,2,2,4,4,2,2,4,4,4,2,4,3,2,4
"VCU",1994,1,7,2,4,2,1,0,0,2,NA,36.27777778,36.22222222,36.33333333,37.553802490234,61,2.777777778,5,1,2,1,NA,4,4,5,NA,3,2,2,3,2,1,2,8,3,1,5,1,1,NA,1,NA,NA,NA,NA,NA,NA,NA,NA,NA,NA,3,2,2,4,4,4,4,4,2,2,4,2,4,3,4,4,2,3,2,3,3,2,2,3,4,4,3,5,4,1,4,3,2,4,4,4,4,2,4,4,2,4,2,2,2,4,4,4,4,2,3,5,5,3,5,3,2,5,4,3,5,4,2,5,2,5,5,5,3,3,3,3,3,3,5,3,4,3,3,3,3,3,3,3,2,4,4,4,2,2,2,2,3,2,2,2,2,2,2,2,4,2,4,2,2,4,4,2,2,1,2,2,2,4,5,3,3,3,3,3,3,1,2,4,4,4,4,4,1,2,2,4,4,1,1,4,4,2,2,4,2,3,4,2,4,4,4,4,2,4,3,2,2,4,4,2,4,4,2,3,2,2,2,2,2,2,4,4,4,4,4,1,2,4,4,1,4,2,4
"VCU",1994,1,7,2,3,2,1,0,14,2,NA,36.28,36.28,36.28,37.534194946289,94,13.33333333,5,1,2,1,NA,4,4,2,2,8,4,4,4,1,NA,2,5,1,NA,NA,1,2,3,1,NA,NA,NA,NA,NA,NA,NA,NA,NA,NA,2,3,3,3,4,4,2,3,3,4,3,5,4,2,3,3,2,3,2,2,2,3,2,3,4,2,2,4,4,2,4,2,2,2,2,4,4,4,4,4,2,2,2,2,4,2,4,2,5,4,2,4,6,3,5,5,2,3,3,2,2,5,5,5,2,2,3,3,2,2,2,2,3,2,3,3,3,4,3,2,3,2,5,5,5,5,5,5,5,4,5,4,3,4,3,3,3,3,2,2,2,2,2,2,2,2,2,2,2,2,3,3,2,3,2,3,3,3,3,4,2,2,4,4,4,4,2,2,4,3,3,4,4,4,4,4,2,4,4,2,4,4,4,4,2,4,4,4,2,4,4,2,2,2,4,4,4,4,3,2,4,4,4,4,4,3,4,4,5,2,3,4,2,4,2,3,3,4,4
"Serbia",1994,2,7,2,5,2,1,4,4,2,NA,36.3,36.4,36.2,44.818603515625,45,12,6,1,2,1,NA,4,2,5,NA,4,4,7,7,1,NA,2,8,1,NA,NA,1,1,NA,1,NA,NA,NA,NA,NA,NA,NA,NA,NA,NA,4,4,2,4,4,3,3,2,2,4,3,4,4,3,2,3,2,3,3,4,2,2,2,2,5,1,2,1,1,1,3,1,1,1,1,3,4,1,3,1,3,1,1,1,1,1,3,8,5,5,5,5,8,8,8,6,3,6,1,1,1,5,3,7,1,1,1,4,1,1,1,1,3,1,1,1,1,1,1,4,4,1,NA,5,5,5,5,5,3,3,5,3,5,5,5,5,5,5,5,1,1,1,1,1,1,2,2,2,1,1,2,3,2,2,2,3,3,7,3,3,3,3,2,2,1,5,1,3,2,3,3,5,4,1,2,3,4,3,4,3,1,5,2,4,5,3,1,1,1,1,3,1,3,4,1,1,5,5,2,5,3,1,3,5,3,1,1,2,5,1,1,1,5,1,5,1,1,4,5
"Kassel",1994,2,6,1,2,2,1,2,NA,1,6,36.3,36,36.6,49.142303466797,NA,NA,1,1,2,1,NA,4,3,4,1,1,NA,5,4,1,NA,2,8,1,NA,NA,1,2,1,1,NA,NA,NA,NA,NA,NA,NA,NA,NA,NA,2,3,4,3,3,2,3,4,4,2,4,5,4,2,3,3,2,3,2,3,2,3,2,3,4,4,3,2,2,2,2,2,2,2,2,2,2,2,2,2,2,2,2,2,2,2,2,4,3,5,4,4,3,4,4,3,3,5,3,5,3,3,3,3,3,3,4,3,3,3,3,3,3,3,4,4,3,3,3,4,4,4,4,3,3,3,3,3,2,2,2,3,3,2,2,2,2,2,2,2,2,3,2,2,2,2,3,2,2,2,2,2,2,3,2,2,4,3,2,3,1,1,4,4,3,4,1,2,2,4,3,4,4,3,2,4,4,2,2,4,2,4,2,4,4,3,2,3,2,2,2,2,2,2,2,2,2,3,4,2,2,3,4,3,2,2,2,3,4,3,2,2,3,2,2,2,2,2,2
"Oxford",1994,2,4,1,3,2,1,0,0,2,NA,36.3,35.6,37,51.75,74,2.777777778,5,1,2,1,NA,4,4,5,NA,6,1,8,8,1,NA,2,8,1,NA,NA,5,2,6,2,"University","Volunteer","Neighbors",NA,NA,7,5,4,NA,NA,1,1,1,3,1,4,1,1,1,4,3,2,3,3,2,2,2,2,2,2,3,3,5,3,4,3,3,1,4,4,4,1,1,3,1,4,2,1,3,3,2,1,1,1,1,1,1,5,4,5,4,4,2,4,4,4,3,3,2,4,4,2,2,4,2,7,6,7,4,6,6,5,6,6,3,2,5,3,6,4,6,3,2,5,5,5,5,4,1,1,1,4,4,5,5,7,4,7,4,5,4,1,5,4,2,4,5,2,4,2,2,4,3,5,2,5,5,4,1,2,5,1,2,4,4,4,3,3,2,1,3,5,3,2,3,5,5,2,4,5,4,3,5,4,5,5,4,3,3,3,2,4,2,2,2,1,1,5,1,4,3,2,3,2,3,4,2,5,4,5,5,5,2,5,4,4,4,1,5
"VCU",1994,2,7,1,3,2,1,8,0,2,NA,36.30555556,36.5,36.11111111,37.614105224609,92,10,5,1,1,2,1,4,2,4,2,3,5,8,8,2,1,2,4,3,3,3,1,2,5,1,NA,NA,NA,NA,NA,NA,NA,NA,NA,NA,4,4,5,3,4,4,3,4,1,4,4,4,3,3,3,3,3,2,2,3,2,2,2,3,4,2,3,3,3,3,3,3,4,3,3,3,4,3,4,4,4,3,3,3,3,2,4,7,3,1,1,1,4,1,1,2,1,6,2,6,2,2,4,1,3,2,2,1,2,2,1,2,2,4,2,2,3,3,1,2,2,1,2,5,5,5,5,5,3,2,3,3,2,4,4,4,4,4,4,3,4,3,3,4,3,3,3,3,3,2,3,3,3,3,3,2,7,4,3,3,1,4,4,4,2,3,3,4,3,4,4,4,4,2,2,3,4,2,2,2,3,2,2,3,4,5,3,4,3,3,4,2,2,2,3,4,4,4,3,1,5,4,4,2,4,4,2,3,4,5,5,3,3,5,5,4,4,3,3
"VCU",1994,2,4,2,3,2,1,0,0,2,NA,36.33333333,36.33333333,36.33333333,37.552200317383,91,14.44444444,5,1,2,1,NA,4,4,5,NA,8,4,8,8,2,1,2,7,1,NA,NA,1,2,2,2,"Alpha Gamma Delta",NA,NA,NA,NA,75,NA,NA,NA,NA,4,3,5,5,3,3,3,3,4,4,5,2,5,2,3,3,2,2,1,3,3,2,2,4,4,2,3,2,2,2,4,2,2,2,2,4,4,4,5,4,2,1,1,1,4,2,2,2,1,2,1,2,1,1,1,2,3,1,1,2,2,1,3,2,3,2,2,4,3,2,2,3,2,3,3,2,5,3,2,3,3,2,2,5,5,5,5,5,4,2,4,4,6,5,5,5,7,7,6,2,2,2,2,2,4,2,2,2,1,1,2,2,1,1,2,4,3,6,2,2,3,3,4,4,4,4,3,1,4,2,5,2,2,1,4,4,2,4,1,2,2,3,3,4,4,4,4,3,4,3,4,4,2,2,3,1,4,5,4,4,2,3,2,4,2,2,4,4,4,2,2,2,4,4,1,4,2,2,4
"VCU",1994,2,7,1,4,2,1,4,0,2,NA,36.33333333,36.22222222,36.44444444,37.552200317383,64,10.55555556,5,1,2,1,NA,4,4,5,NA,3,1,8,8,1,NA,2,2,3,1,8,1,2,2,2,"Sorority",NA,NA,NA,NA,14,NA,NA,NA,NA,4,3,3,5,4,3,2,3,4,3,5,5,5,3,2,4,1,2,2,2,3,3,3,3,5,1,3,2,4,2,5,2,2,2,4,2,4,4,4,5,2,1,1,1,1,2,4,2,5,2,2,1,5,5,5,5,1,5,2,1,1,1,1,1,1,4,5,3,5,2,2,2,2,4,3,2,3,3,2,3,3,3,2,5,4,5,5,3,4,2,3,3,5,6,6,6,5,4,5,2,4,2,4,2,4,2,2,3,2,2,2,2,2,3,4,4,3,1,1,1,2,1,1,1,1,5,5,5,2,2,1,3,1,3,1,2,5,1,5,4,2,4,5,4,4,5,5,5,2,4,3,2,1,2,1,4,5,4,4,1,1,4,4,4,2,4,1,2,4,4,3,4,2,5,5,3,4,1,4
"SMU",1994,2,7,2,3,1,1,1,0,2,NA,36.35,36.4,36.3,1.2931060791016,71,26,5,1,2,1,NA,4,4,5,NA,1,NA,6,6,2,8,2,4,1,NA,NA,5,1,NA,1,NA,NA,NA,NA,NA,NA,NA,NA,NA,NA,4,4,2,5,5,5,1,4,2,3,3,5,4,2,1,3,1,3,3,3,3,1,5,1,4,2,3,3,3,2,2,2,2,2,2,4,5,4,4,2,5,2,2,2,1,2,5,2,2,2,5,3,2,6,2,1,3,1,2,2,7,2,3,3,1,2,3,4,4,2,6,6,5,3,1,2,5,2,7,5,5,4,3,5,5,5,5,5,5,5,5,4,3,7,6,6,2,6,6,2,2,4,3,2,3,2,2,4,2,1,2,2,4,4,2,2,2,5,2,6,6,5,2,2,4,4,1,4,1,1,5,5,2,2,5,5,2,4,3,4,1,1,5,5,2,5,1,3,3,2,3,3,2,2,3,4,1,2,4,2,2,5,5,3,4,2,2,4,4,4,2,4,4,4,2,4,4,3,5
"Tsinghua",1994,1,1,1,5,2,1,3,2,1,8,36.35,36.5,36.2,30.580093383789,78,17,7,3,2,1,0,2,1,5,0,7,4,4,2,2,8,2,5,3,1,1,1,2,1,1,NA,NA,NA,NA,NA,NA,NA,NA,NA,NA,2,2,4,4,3,2,1,1,4,5,5,3,4,4,4,4,2,2,2,2,2,2,2,3,4,2,2,3,3,1,3,2,3,5,4,3,3,3,3,3,3,3,3,3,3,3,3,7,1,1,1,7,2,3,2,4,2,1,4,1,1,1,4,4,4,2,1,1,1,1,1,1,3,1,1,1,1,2,1,1,2,1,1,5,5,5,5,5,5,5,5,5,7,1,5,7,6,6,6,1,3,4,3,1,4,3,3,4,2,5,2,1,1,4,3,4,3,1,1,1,2,1,1,5,4,4,1,5,1,1,5,4,4,1,2,2,2,2,2,3,5,3,2,2,5,5,5,5,5,2,3,2,2,2,4,2,2,5,1,1,1,4,4,5,5,3,3,2,4,1,4,2,2,3,5,3,4,4,4
"Tsinghua",1994,2,6,2,2,2,1,0,0,2,0,36.35,36.3,36.4,30.580093383789,66,13,7,3,2,1,0,4,4,5,0,6,3,4,2,1,1,2,8,3,8,3,1,2,4,2,NA,NA,NA,NA,NA,NA,NA,NA,NA,NA,3,3,3,2,4,4,2,4,2,3,3,2,2,3,4,4,2,2,2,3,3,2,3,3,4,3,3,3,4,2,4,4,3,2,4,4,4,4,4,4,3,2,2,3,2,2,4,5,4,4,4,3,5,5,5,2,4,3,4,5,4,3,5,3,3,4,3,4,3,4,5,4,2,4,3,3,4,3,5,3,4,5,2,4,4,4,4,4,4,4,4,4,5,2,2,5,5,5,5,4,4,2,2,3,4,4,4,4,2,4,2,4,2,3,2,3,4,4,3,2,2,3,2,2,4,4,4,4,2,3,4,2,2,2,1,2,3,2,4,4,3,2,4,4,4,3,3,4,3,4,4,4,2,2,2,4,4,3,4,4,2,4,2,4,4,3,2,4,4,3,3,4,4,3,4,4,4,2,4
"Tsinghua",1994,1,4,1,2,2,1,1,0,2,0,36.35,36,36.7,39.928894042969,21,11,7,3,2,1,0,4,2,5,0,8,1,5,5,1,1,2,6,1,1,7,4,2,1,1,"¹­¼ýÐ­»á",NA,NA,NA,NA,9,NA,NA,NA,NA,3,3,2,3,2,4,2,4,2,2,4,3,2,4,5,4,4,3,2,4,3,4,4,4,4,2,2,4,4,2,4,4,4,4,4,4,4,4,4,4,4,4,2,2,2,4,4,6,5,6,6,7,4,5,6,5,5,3,6,5,7,5,6,5,5,3,2,3,2,2,4,5,2,2,3,3,3,2,5,2,2,2,4,4,4,4,4,4,4,4,2,4,4,3,3,3,4,5,4,3,4,4,3,3,3,2,2,3,2,2,2,4,2,4,3,5,3,4,2,2,2,2,3,3,3,3,3,3,5,3,3,3,3,3,3,4,4,3,2,2,1,2,4,4,4,3,2,3,4,4,4,4,2,2,3,3,2,4,4,4,2,3,2,4,4,3,2,4,3,2,2,3,2,2,4,4,3,2,2
"SMU",1994,1,4,1,3,2,1,0,0,2,NA,36.35,36.1,36.6,1.2931060791016,70,26,5,1,2,1,NA,4,4,5,NA,3,1,8,8,2,8,2,8,1,NA,NA,1,1,NA,1,NA,NA,NA,NA,NA,NA,NA,NA,NA,NA,2,1,4,3,3,4,2,4,2,2,4,2,2,4,3,2,3,3,3,3,2,3,3,3,5,1,2,4,4,4,4,4,4,4,4,4,4,4,4,4,3,2,2,3,3,2,4,5,5,5,5,6,3,3,5,3,2,2,5,3,5,5,5,6,3,5,3,3,3,2,2,2,3,3,3,2,3,3,2,2,3,2,3,5,5,5,5,5,5,5,5,5,4,5,5,5,5,4,4,3,4,3,2,4,4,4,2,2,4,2,2,4,1,3,1,3,3,5,3,2,2,3,4,4,5,1,1,2,3,3,3,4,4,2,4,5,3,5,3,1,3,4,2,3,4,5,4,3,4,5,4,4,2,2,3,3,3,4,4,3,2,3,4,3,4,4,3,3,4,4,4,2,2,4,3,3,3,3,2
"VCU",1994,2,7,1,5,2,1,0,0,2,NA,36.36111111,36.27777778,36.44444444,37.552200317383,81,14.44444444,5,1,2,1,NA,4,2,4,1,4,2,6,6,2,2,2,7,1,NA,NA,1,2,3,2,"sorority",NA,NA,NA,NA,12,NA,NA,NA,NA,4,3,4,5,3,4,2,3,2,3,3,5,4,2,3,2,2,2,2,3,2,2,2,2,4,2,3,3,3,3,4,4,3,4,3,4,3,3,2,2,3,2,2,3,2,2,3,1,2,2,1,2,2,1,1,1,1,3,2,1,2,1,5,2,2,2,3,2,2,2,2,3,2,2,2,3,2,2,2,2,3,3,2,4,5,5,5,5,4,3,4,3,4,2,2,3,3,4,3,2,2,1,2,3,2,3,2,2,2,1,2,4,2,3,3,5,6,5,2,3,2,2,1,1,1,5,4,4,3,4,5,2,2,1,1,3,4,1,4,3,3,2,4,3,4,3,3,4,4,5,4,4,2,2,3,2,5,5,3,4,2,2,2,2,3,3,2,2,3,4,3,3,3,4,3,4,3,2,2
"Oslo",1994,1,7,1,4,2,1,0,0,2,NA,36.37,36.37,36.37,59.743896484375,48,-4,4,1,1,1,NA,4,2,4,1,2,1,3,3,1,NA,2,8,3,1,8,1,1,NA,1,NA,NA,NA,NA,NA,NA,NA,NA,NA,NA,3,4,3,3,4,3,2,2,3,2,2,2,5,2,1,2,1,1,1,1,1,1,2,1,4,2,1,3,2,1,3,1,1,4,2,5,1,1,2,1,2,1,4,4,1,4,1,2,1,1,2,7,2,1,2,2,1,5,1,1,2,6,6,6,1,5,1,6,1,3,1,3,3,1,3,5,1,1,2,2,1,1,1,4,4,4,5,5,4,2,2,2,1,2,2,2,2,2,2,1,2,1,2,1,1,2,2,4,1,1,1,1,1,2,1,3,3,3,1,1,2,1,2,5,4,2,1,1,4,2,2,5,5,1,4,5,3,3,3,2,1,1,2,2,3,5,2,5,3,4,3,3,1,1,1,2,2,5,4,4,5,3,2,4,5,2,4,3,5,4,5,4,5,2,2,3,2,2,2
"VCU",1994,2,7,1,4,2,1,2,0,2,NA,36.38888889,36.44444444,36.33333333,37.516006469727,87,13.33333333,5,1,2,1,NA,4,4,5,NA,8,1,5,5,1,NA,2,4,1,NA,NA,1,1,NA,1,NA,NA,NA,NA,NA,NA,NA,NA,NA,NA,4,4,4,3,4,4,3,3,3,3,4,4,4,4,3,3,2,2,2,2,2,2,2,2,4,2,2,4,4,4,4,3,4,4,4,4,4,4,4,4,4,3,4,4,4,3,4,3,2,2,5,4,3,4,2,2,2,5,2,2,2,1,2,5,1,2,1,3,1,1,1,2,2,2,2,2,1,1,2,2,3,1,2,5,4,4,4,4,3,3,4,4,5,6,6,6,5,5,6,2,4,2,2,2,3,3,2,2,2,2,2,2,1,2,1,5,4,2,2,2,2,3,4,4,5,4,2,2,2,2,2,5,3,4,5,3,2,4,3,4,2,4,5,4,4,5,5,5,3,3,5,4,1,2,3,3,5,5,3,3,2,4,4,4,4,5,2,4,4,5,5,5,2,4,5,4,2,1,2
"METU",1994,2,7,2,4,2,1,6,4,1,4,36.4,36.2,36.6,39.911697387695,74,12,3,2,2,1,NA,4,4,5,NA,4,4,6,6,1,NA,2,4,1,NA,NA,1,2,8,2,"Thbt",NA,NA,NA,NA,20,NA,NA,NA,NA,3,4,3,4,2,3,2,1,4,2,3,2,3,3,4,3,3,3,2,3,3,3,3,3,4,4,3,2,3,1,3,4,3,3,2,4,1,3,3,3,3,1,3,2,2,4,1,5,4,4,5,4,5,4,5,6,4,7,3,4,1,4,7,2,2,2,3,4,4,4,4,4,4,4,2,3,3,2,4,4,4,2,3,3,4,4,3,4,3,3,4,4,7,5,5,6,5,5,5,3,2,1,2,2,1,2,3,1,1,2,1,2,2,3,2,5,8,7,3,7,6,6,3,1,4,4,1,2,4,4,1,5,4,3,4,5,3,4,4,3,3,4,4,4,3,4,4,3,3,4,3,3,3,3,3,2,1,3,3,3,3,3,3,4,3,4,2,3,3,3,4,4,3,3,3,3,3,3,3
"Tsinghua",1994,1,7,2,2,2,1,4,0,2,0,36.4,36.5,36.3,30.580093383789,74,16,7,3,2,1,0,4,2,5,0,8,1,6,3,1,1,2,8,1,1,1,1,1,3,2,NA,NA,NA,NA,NA,NA,NA,NA,NA,NA,5,4,4,2,3,3,3,3,2,3,4,3,3,5,4,5,2,3,3,4,5,4,5,3,2,4,5,3,3,4,3,2,4,2,4,4,3,3,5,5,3,4,5,3,2,2,4,5,5,4,4,3,5,3,4,3,2,3,5,3,3,4,6,3,5,6,2,6,4,5,7,5,2,5,3,4,3,2,5,4,5,5,2,4,4,5,4,4,3,3,3,5,5,5,3,7,5,5,5,4,4,2,3,2,3,3,3,4,3,5,4,3,4,3,3,2,2,4,3,6,4,6,5,3,4,4,2,3,4,5,1,3,2,2,3,4,2,3,2,4,2,2,4,4,4,2,2,4,2,2,2,3,3,4,2,4,3,4,3,4,4,3,2,4,2,3,4,4,3,3,2,4,3,3,2,4,2,3,4
"Oxford",1994,2,7,2,4,2,1,3,1,2,NA,36.4,36.3,36.5,51.75,74,2.777777778,5,1,2,1,NA,4,4,5,NA,2,1,8,8,1,NA,1,NA,1,NA,NA,1,1,NA,2,"Sports club",NA,NA,NA,NA,5,NA,NA,NA,NA,1,2,5,4,2,2,3,3,2,4,4,3,4,5,4,5,2,4,4,5,5,4,4,5,5,3,5,5,5,4,5,4,5,4,5,4,5,5,5,5,5,5,3,4,5,5,5,5,5,4,5,3,7,7,7,6,4,5,1,5,1,6,3,6,3,7,6,6,6,6,6,6,6,5,7,6,6,6,6,6,6,6,6,5,5,5,5,5,5,5,5,5,5,6,4,3,5,5,5,4,4,1,3,5,2,3,2,2,4,5,4,4,2,5,4,1,1,1,1,1,1,1,1,4,2,4,1,5,2,4,5,5,4,1,3,5,5,2,5,1,1,1,4,4,4,1,1,1,1,4,1,1,4,4,3,2,5,2,4,1,2,3,4,4,4,1,1,1,4,1,1,5,5,5,2,5,4,4,1
"VCU",1994,2,2,1,3,2,1,8,0,2,NA,36.44444444,36.27777778,36.61111111,36.934005737305,54,7.222222222,5,1,2,1,NA,4,4,5,NA,3,3,4,4,1,NA,2,3,3,1,4,1,1,NA,1,NA,NA,NA,NA,NA,NA,NA,NA,NA,NA,4,4,4,4,3,4,3,3,4,4,4,4,4,3,3,4,3,3,3,3,3,3,3,4,4,3,3,2,3,2,3,2,2,4,2,4,4,4,4,4,4,2,2,3,3,3,3,2,3,2,3,3,4,4,3,4,2,2,2,2,2,2,3,2,3,5,3,5,4,5,4,3,4,4,2,2,2,2,5,3,3,3,2,5,5,4,5,5,5,4,5,5,3,5,5,5,5,6,6,3,2,2,3,3,2,4,3,2,4,4,4,2,3,4,2,4,6,5,5,5,5,4,4,4,2,5,4,5,4,3,5,2,2,2,2,2,4,3,4,3,2,2,4,4,4,3,2,4,4,3,4,4,2,2,3,4,4,4,4,2,2,4,4,2,4,2,2,4,4,2,2,2,4,4,4,3,4,2,4
"VCU",1994,2,1,2,3,2,1,4,2,2,NA,36.44444444,36.16666667,36.72222222,37.580902099609,81,14.44444444,5,1,2,1,NA,4,4,5,NA,3,3,2,2,2,3,2,3,3,1,1,2,1,NA,2,"church","group chat","cousins",NA,NA,2,5,3,NA,NA,3,3,3,3,4,3,2,3,3,4,3,3,3,4,4,4,3,2,3,3,4,3,3,4,4,2,4,3,2,2,3,4,3,3,3,4,4,4,4,4,3,2,3,3,2,2,4,3,2,2,2,4,2,2,3,3,5,5,2,2,2,2,2,2,3,3,2,2,4,3,4,2,4,6,3,3,4,4,5,5,5,5,4,2,4,4,3,4,4,3,4,4,4,4,4,4,4,4,4,2,2,2,4,3,3,3,2,3,3,3,2,2,3,3,3,4,5,4,3,5,2,2,4,4,3,4,4,3,2,4,4,4,4,3,2,4,4,3,4,2,3,4,4,3,4,3,3,4,4,4,3,4,3,3,3,4,4,3,3,2,2,4,4,4,3,3,3,4,4,4,3,4,3,4,4,4,4,4,3
"Oxford",1994,2,3,2,3,2,1,0,0,2,NA,36.45,36.2,36.7,51.75,74,2.777777778,5,1,2,1,NA,4,4,5,NA,7,4,7,7,2,3,2,7,1,NA,NA,4,1,NA,1,NA,NA,NA,NA,NA,NA,NA,NA,NA,NA,4,4,4,5,5,3,4,3,3,4,3,4,5,2,2,3,3,2,2,2,3,3,3,2,3,4,2,2,3,2,3,2,2,3,2,3,3,3,3,2,3,2,3,2,3,2,3,2,2,2,2,2,4,2,2,4,2,4,2,2,2,2,2,4,2,2,4,2,4,2,2,2,4,4,4,4,4,4,2,4,4,4,4,4,5,5,5,5,5,5,3,3,3,5,4,4,4,4,4,2,2,1,2,2,2,2,2,2,2,2,3,2,2,3,2,5,5,4,4,4,2,3,2,2,3,4,3,5,3,3,4,4,2,2,2,2,4,2,4,2,1,4,3,3,3,2,3,3,3,2,3,4,2,2,2,2,3,3,3,2,2,2,4,2,4,1,2,3,4,2,2,3,3,3,2,3,3,3,3
"Oxford",1994,1,6,2,3,2,1,6,8,2,NA,36.45,36.6,36.3,51.75,89,-1.666666667,5,1,2,1,NA,4,4,5,NA,8,1,8,8,1,NA,2,8,1,NA,NA,1,1,NA,2,"acting group","ball committee",NA,NA,NA,7,7,NA,NA,NA,2,1,3,2,1,3,2,1,1,2,3,3,3,3,4,5,2,2,2,2,3,2,3,4,5,2,3,2,3,2,3,3,2,2,2,4,3,3,3,4,2,1,2,2,3,2,4,4,4,4,3,7,6,4,6,3,5,3,5,3,4,5,4,3,3,4,3,5,3,3,2,3,4,1,2,3,3,3,5,3,2,3,4,4,4,4,3,3,2,1,4,3,6,7,5,5,6,5,5,4,3,3,2,2,4,4,2,2,5,2,2,2,2,2,1,4,3,4,2,2,2,2,2,4,3,5,5,2,2,5,2,1,3,2,2,2,4,2,4,2,3,2,4,3,4,3,3,3,1,4,3,3,2,2,2,2,2,4,2,2,2,2,2,3,4,2,3,4,3,2,2,4,3,4,3,3,3,2,4
"Tsinghua",1994,2,7,2,2,2,1,0,0,2,0,36.45,36.2,36.7,30.580093383789,71,16,7,3,2,1,0,4,2,5,0,6,3,6,2,1,1,1,3,2,1,5,1,2,1,2,"°àÎ¯",NA,NA,NA,NA,5,NA,NA,NA,NA,2,3,3,3,3,2,2,3,3,1,2,3,2,4,4,4,4,3,4,3,4,3,4,2,4,3,4,2,4,3,4,4,3,4,4,4,4,3,4,3,2,2,2,2,2,2,3,6,5,5,4,5,5,4,4,5,5,5,5,4,4,6,5,5,4,5,3,3,4,4,4,3,3,3,5,2,5,5,5,5,3,3,4,4,4,3,2,4,5,4,3,4,5,1,3,2,4,4,4,4,4,2,2,3,3,4,4,4,4,2,2,3,2,3,2,3,3,4,2,2,2,3,1,3,4,4,1,3,2,2,2,4,2,1,1,4,4,2,4,3,3,3,3,4,3,4,4,3,3,3,3,3,3,3,3,2,4,4,4,3,2,4,4,3,3,2,2,4,4,3,3,3,3,4,4,3,4,4,3
"METU",1994,2,6,2,3,2,1,5,0,1,5,36.45,36.4,36.5,39.911697387695,64,6,3,2,3,1,NA,4,4,5,NA,2,1,8,6,1,NA,2,8,3,1,8,1,2,8,2,"TED burslu ??rencileri",NA,NA,NA,NA,7,NA,NA,NA,NA,3,4,4,3,2,2,4,4,2,3,4,2,3,3,3,3,2,2,2,2,2,2,2,3,3,3,3,4,4,4,4,4,2,4,3,4,2,4,3,2,2,3,4,4,4,2,2,4,2,2,5,6,2,5,2,2,2,3,2,2,3,2,6,2,3,4,3,2,2,3,2,2,2,2,3,2,3,3,2,3,4,4,4,3,3,3,2,2,2,2,1,2,3,3,3,3,2,2,2,3,3,1,4,3,4,4,3,3,4,2,3,5,4,3,2,5,6,3,1,3,3,3,1,4,1,3,5,4,4,4,4,1,2,1,1,2,5,1,5,4,3,4,3,2,4,3,3,3,2,3,3,2,3,4,3,4,5,5,3,4,3,4,3,4,4,4,1,2,2,4,2,4,2,4,4,3,3,3,4
"Tsinghua",1994,2,7,2,4,2,1,NA,0,2,0,36.45,36.3,36.6,30.666702270508,70,14,7,3,2,1,0,4,4,5,0,8,4,8,5,1,1,2,8,1,1,8,6,1,4,1,"ÅÅÇòÐ­»á","ÎäÊõÐ­»á","ÓïÑÔ°®ºÃÕßÐ­»á",NA,NA,3,NA,NA,NA,NA,5,2,1,3,5,2,5,1,3,2,5,3,3,2,2,4,2,2,2,2,1,3,3,4,3,2,4,4,4,4,4,4,3,4,4,3,4,4,3,4,4,5,4,4,3,5,5,4,5,4,5,3,4,4,4,5,3,3,4,4,3,5,5,4,5,5,4,4,5,5,3,4,3,3,4,3,4,4,5,3,3,5,5,3,4,4,5,5,3,3,3,3,3,4,4,7,7,6,6,3,3,3,2,2,3,2,3,3,3,3,4,2,2,3,4,2,2,4,2,2,3,2,4,4,3,4,4,4,4,4,4,2,2,3,2,3,3,3,3,4,4,2,4,4,2,4,4,3,4,4,4,4,2,3,2,2,3,3,3,3,3,2,4,3,4,3,3,2,5,3,4,3,3,5,3,3,4,2,3
"SMU",1994,2,7,1,4,2,1,0,0,2,NA,36.45,36.6,36.3,1.2931060791016,70,26,5,1,2,1,NA,4,4,5,NA,5,2,2,8,2,5,2,8,1,NA,NA,3,1,NA,2,"Women Soccer Club",NA,NA,NA,NA,7,NA,NA,NA,NA,2,2,2,4,4,3,1,3,2,2,3,2,3,5,4,5,2,2,2,2,3,2,3,4,4,3,5,4,4,3,4,4,3,4,4,4,4,4,3,4,4,1,3,4,2,4,4,2,1,1,1,1,2,2,2,1,5,1,1,1,2,2,1,1,4,1,1,7,2,1,1,2,2,2,1,1,1,1,2,1,2,2,1,4,5,5,5,5,5,5,5,5,4,7,6,6,5,6,5,3,3,2,2,2,3,3,2,2,2,2,2,4,2,3,2,4,6,5,6,5,6,5,2,4,4,2,2,2,4,4,2,4,3,2,4,4,3,4,3,2,2,2,4,5,2,4,1,4,4,1,4,4,1,1,2,2,2,3,4,2,2,4,3,2,4,3,4,4,4,4,3,2,2,3,2,2,3,1,4
"Kassel",1994,2,7,2,4,2,1,1,0,2,NA,36.45,36.5,36.4,50.721298217773,58,0,1,1,2,1,NA,4,2,5,NA,8,4,2,1,1,NA,2,5,1,NA,NA,1,1,NA,1,NA,NA,NA,NA,NA,NA,NA,NA,NA,NA,4,3,2,4,4,4,2,4,2,2,3,4,3,4,4,4,3,3,4,3,4,3,3,4,4,3,3,4,5,3,4,4,3,4,4,4,4,3,4,4,5,2,4,3,3,3,4,5,5,4,4,4,5,4,4,5,4,4,4,4,4,4,5,4,4,4,4,4,4,4,4,4,4,4,4,4,4,4,4,5,4,4,4,5,5,4,5,5,5,5,5,5,4,5,5,5,4,4,4,3,4,1,3,2,3,3,4,2,4,3,2,3,3,4,2,4,2,2,1,2,2,1,3,4,2,5,2,4,3,3,3,5,4,2,1,4,3,1,4,4,3,5,3,4,3,3,4,3,3,3,3,3,2,2,2,2,3,3,4,1,2,4,4,2,5,2,1,4,3,2,2,2,1,3,4,2,2,2,2
"VCU",1994,2,7,1,4,2,1,0,0,2,NA,36.47222222,36.61111111,36.33333333,37.553802490234,64,10.55555556,5,1,1,1,NA,4,2,4,2,2,2,6,6,2,3,2,6,3,1,8,2,1,NA,1,NA,NA,NA,NA,NA,NA,NA,NA,NA,NA,4,5,5,2,5,4,5,3,5,3,5,5,5,3,4,5,2,2,2,4,3,2,2,3,5,2,2,1,1,1,1,1,1,1,1,1,4,1,4,3,2,1,1,1,1,1,1,4,4,4,4,4,4,4,4,2,4,4,6,4,4,4,4,4,4,4,2,4,4,4,4,4,4,4,4,4,4,4,4,4,4,4,4,5,5,5,5,5,5,5,5,5,3,4,3,6,2,2,2,2,3,1,3,3,3,3,3,3,2,3,2,3,1,3,4,5,3,4,5,5,5,1,3,3,3,3,3,3,3,3,3,4,4,2,4,5,5,4,1,2,3,3,3,3,3,3,3,3,3,3,3,3,3,3,3,3,3,3,2,2,2,4,4,3,3,3,2,4,4,3,3,3,3,3,3,3,3,3,3
"VCU",1994,2,7,1,4,2,1,10,0,2,NA,36.47222222,36.33333333,36.61111111,37.619201660156,88,10,5,1,2,1,NA,4,4,5,NA,6,4,8,6,1,NA,2,8,3,1,8,5,1,NA,1,NA,NA,NA,NA,NA,NA,NA,NA,NA,NA,3,4,4,2,4,4,4,4,4,2,5,4,4,2,3,3,2,2,2,2,2,2,2,2,4,2,2,2,2,2,2,2,2,2,2,2,2,2,2,2,2,2,2,2,2,2,2,2,2,2,2,2,2,2,2,2,2,2,2,2,2,2,2,2,2,2,2,6,2,2,2,2,2,2,6,2,2,2,2,2,4,2,3,5,5,5,5,5,5,5,5,5,5,5,5,5,5,5,5,2,3,2,3,2,2,2,4,2,2,2,4,2,2,2,2,4,6,6,6,6,6,6,2,4,4,4,1,4,2,4,4,5,4,2,3,4,4,2,4,3,4,4,4,3,3,3,4,4,4,4,4,4,2,2,2,2,4,4,4,3,3,4,3,3,3,2,2,3,4,3,2,2,2,4,3,3,4,2,3
"Serbia",1994,1,6,2,5,2,1,2,0,2,NA,36.5,36.5,36.5,44.779205322266,95,11,6,1,2,1,NA,4,4,5,NA,8,4,8,8,1,NA,2,8,1,NA,NA,3,2,3,2,"SF Gugi",NA,NA,NA,NA,5,NA,NA,NA,NA,3,5,5,5,5,5,5,3,5,4,5,5,5,2,1,1,1,2,1,3,2,1,2,1,3,2,1,1,2,1,1,2,2,2,2,2,4,3,2,2,1,2,2,2,1,2,2,2,1,1,1,5,2,1,3,NA,1,1,2,1,1,1,2,1,1,5,NA,4,NA,1,1,1,NA,NA,NA,NA,NA,NA,1,7,6,1,NA,5,4,4,5,5,4,2,4,4,2,2,3,1,2,2,2,2,2,2,2,2,2,2,2,2,2,1,4,2,2,2,3,4,4,4,1,2,2,4,4,2,2,4,2,2,2,4,2,4,1,1,2,2,2,4,4,2,4,4,4,4,4,2,2,2,4,3,1,1,1,3,2,2,2,3,2,2,2,2,3,4,3,2,4,4,2,4,4,4,3,2,2,2,2,4,2
"UCSB",1994,2,7,2,4,2,1,0,0,2,NA,36.5,37,36,34.4329071,54,6.666666667,5,1,2,1,NA,4,4,5,NA,1,NA,5,2,2,1,2,3,1,NA,NA,1,1,NA,2,"NHCC","0","0","0","0",6,0,0,0,0,4,4,4,2,4,5,2,3,2,2,4,4,5,2,2,3,2,3,2,3,3,1,3,2,3,3,3,1,4,1,4,2,2,2,2,1,4,2,1,1,1,1,1,2,1,1,2,1,1,1,1,1,1,1,1,7,1,7,1,1,1,1,1,1,1,1,7,1,7,1,1,1,7,7,7,7,7,7,1,7,7,7,7,5,5,5,5,5,5,3,4,3,3,5,4,4,4,4,3,2,3,1,3,1,2,2,1,4,2,1,1,1,2,4,2,1,2,5,2,2,2,1,3,3,4,4,1,2,2,5,3,5,2,1,4,5,4,3,2,2,2,3,4,4,3,4,4,3,3,4,3,1,3,2,3,2,4,5,4,4,1,3,4,4,2,2,2,4,4,3,2,2,4,2,2,2,2,4,2
"Kassel",1994,2,5,1,2,2,1,3,0,2,NA,36.5,36.5,36.5,53.550003051758,88,0,1,1,2,1,NA,4,4,4,1,7,2,7,5,2,1,2,8,1,NA,NA,1,2,1,1,NA,NA,NA,NA,NA,NA,NA,NA,NA,NA,3,3,3,4,2,3,2,3,3,4,2,3,4,4,4,4,3,2,3,2,4,3,3,4,4,3,4,2,4,2,4,2,1,1,2,3,4,4,4,3,3,1,2,2,1,1,2,5,4,5,6,6,5,2,6,4,2,3,3,6,3,5,6,2,3,3,2,4,2,3,2,2,3,5,4,4,4,4,2,4,4,1,4,5,5,5,5,5,4,3,4,4,6,6,6,6,6,5,4,2,2,2,1,2,2,3,2,2,2,2,2,2,3,3,2,5,7,6,5,3,4,5,2,2,2,4,4,4,2,2,4,3,2,1,3,3,3,2,3,3,4,5,3,4,3,4,4,4,4,3,4,4,2,2,3,5,5,5,3,3,2,2,3,4,3,3,2,4,4,4,4,4,3,4,5,5,4,2,5
"Kassel",1994,2,7,1,3,2,1,8,0,2,NA,36.5,36,37,50.932601928711,61,10,1,1,2,1,NA,4,4,4,1,7,4,7,5,2,3,2,6,3,1,5,2,1,NA,2,"Showtanzgruppe","Kirmesgesellschaft",NA,NA,NA,10,5,NA,NA,NA,3,3,4,4,3,3,3,2,3,4,4,2,4,3,3,3,3,2,2,3,3,2,4,4,4,2,2,2,4,2,3,2,1,2,3,3,4,4,3,3,3,2,3,2,1,2,3,4,4,4,5,6,5,3,2,5,2,4,5,2,2,2,4,2,2,2,2,6,2,2,1,1,2,7,2,2,2,3,1,5,3,2,5,5,5,4,5,5,5,3,4,4,4,3,5,4,5,5,5,2,2,1,2,3,2,3,2,2,2,2,2,2,2,2,2,4,6,7,3,4,4,5,2,3,1,5,4,4,3,3,4,4,3,1,1,3,4,1,2,4,3,4,3,3,4,5,5,4,4,4,4,4,2,2,2,2,2,4,3,1,3,3,2,2,4,3,1,4,4,4,5,5,2,4,4,4,4,2,2
"VCU",1994,2,7,1,4,2,1,NA,0,2,NA,36.5,36.44444444,36.55555556,37.502304077148,91,14.44444444,5,1,1,1,NA,4,2,5,NA,8,4,5,3,1,NA,2,8,3,1,6,1,1,NA,2,"Fraternity",NA,NA,NA,NA,7,NA,NA,NA,NA,2,4,5,2,2,2,4,3,4,2,5,4,5,2,3,3,2,2,2,2,2,2,2,3,4,2,3,2,4,2,2,2,2,2,2,4,4,4,4,4,4,2,2,2,2,2,3,2,3,2,2,2,3,3,2,2,1,3,5,1,2,3,2,1,1,3,5,3,2,2,2,3,3,6,3,3,3,2,2,3,3,2,3,5,4,5,5,5,5,2,5,5,1,1,1,1,1,1,1,2,4,2,2,2,2,2,2,3,2,2,2,2,2,4,2,1,2,1,2,2,3,1,4,4,2,4,2,4,3,2,4,4,2,1,4,4,4,2,4,4,1,2,4,4,4,4,3,4,4,4,2,2,2,2,2,4,4,4,4,2,2,4,2,4,2,2,2,4,4,4,3,3,2,3,4,3,4,4,3
"SMU",1994,1,7,2,3,2,1,0,0,2,NA,36.5,36.5,36.5,1.2931060791016,79,26,5,1,2,1,NA,4,4,5,NA,2,1,3,1,2,1,2,5,1,NA,NA,1,1,NA,1,NA,NA,NA,NA,NA,NA,NA,NA,NA,NA,3,2,4,2,4,4,2,4,4,5,3,4,5,2,4,2,2,2,1,1,2,2,2,3,5,1,2,2,4,1,5,1,2,2,1,4,1,1,1,5,1,1,3,1,1,1,3,3,4,5,4,4,2,4,4,4,4,2,4,2,4,2,5,3,2,3,3,4,3,4,3,3,3,5,3,3,3,3,3,4,3,3,3,5,5,5,5,5,5,5,5,5,4,5,5,5,4,4,4,1,4,1,5,1,1,1,3,3,3,1,1,2,5,4,2,2,2,1,1,2,2,1,2,4,5,1,1,4,4,3,4,5,5,1,4,5,4,3,3,2,2,4,4,4,4,4,2,4,3,4,4,2,2,2,2,1,1,5,4,2,3,5,5,2,4,3,3,3,4,2,2,2,2,4,2,4,3,4,1
"SMU",1994,2,7,2,3,2,1,2,0,2,NA,36.5,36.4,36.6,1.2931060791016,71,26,5,1,2,1,NA,4,4,5,NA,7,7,5,4,1,NA,2,4,1,NA,NA,1,1,NA,1,NA,NA,NA,NA,NA,NA,NA,NA,NA,NA,4,4,2,4,3,3,5,3,3,3,4,5,2,2,3,3,2,2,2,3,3,2,3,2,4,2,3,2,4,2,4,1,2,4,2,2,2,2,2,2,2,2,2,2,1,3,2,4,3,2,4,4,2,2,4,2,2,2,4,2,2,2,3,5,2,5,2,3,2,2,3,5,3,6,2,2,2,2,5,2,4,2,3,5,4,5,5,5,4,2,4,3,6,5,5,5,5,5,3,2,3,2,4,2,2,3,2,4,3,2,2,3,3,2,3,1,2,3,1,3,4,1,3,3,4,4,3,4,2,2,2,2,2,1,3,3,3,2,2,2,2,2,4,1,3,2,3,3,3,2,3,3,3,2,2,2,1,4,2,4,4,2,2,2,2,2,2,4,4,3,3,2,3,3,3,2,4,2,3
"Serbia",1994,2,7,2,5,2,1,12,0,2,NA,36.5,36.7,36.3,44.818603515625,61,1,6,1,2,1,NA,4,2,5,NA,1,NA,4,4,1,NA,2,8,2,1,2,1,1,NA,1,NA,NA,NA,NA,NA,NA,NA,NA,NA,NA,2,5,1,1,1,4,2,1,3,1,2,4,4,5,3,5,4,5,4,5,4,5,5,5,4,5,1,4,4,2,3,4,2,1,1,5,5,5,5,5,1,1,2,2,1,1,5,4,4,4,4,4,4,4,4,4,4,4,4,4,4,4,4,4,4,4,4,4,4,4,4,4,4,4,4,4,4,4,4,4,4,4,4,1,1,2,1,1,2,1,2,1,6,3,3,3,2,2,4,2,2,1,3,1,3,5,3,5,5,4,1,1,2,2,4,4,5,2,1,1,1,1,4,2,3,3,3,1,2,5,2,3,3,3,1,4,2,5,5,5,5,3,1,4,3,1,3,1,2,2,4,4,3,3,3,2,1,1,1,1,3,1,5,1,2,4,3,2,5,1,4,3,2,1,1,1,1,4,5
"Tsinghua",1994,2,7,2,3,2,1,0,NA,2,0,36.5,36.4,36.6,30.666702270508,79,14,7,3,2,1,0,4,2,5,0,5,4,5,4,1,1,2,8,1,1,8,4,1,8,1,"ÇàÄêÖ¾Ô¸ÕßÐ­»á","ÔË¶¯¾ãÀÖ²¿","Ê«¸èÀÊËÐÐ­»á",NA,NA,NA,NA,NA,NA,NA,4,4,1,4,4,4,3,2,3,4,5,3,4,4,3,4,3,3,2,4,3,3,2,3,4,2,3,3,3,4,4,2,4,2,3,3,4,3,4,3,2,2,3,3,2,2,3,6,5,4,5,7,5,3,4,4,7,5,5,5,4,4,6,7,6,5,3,5,4,6,4,6,5,3,3,4,4,4,6,4,2,3,1,4,5,5,5,5,5,5,5,5,3,2,4,5,4,6,5,4,5,3,3,5,5,4,5,5,5,5,3,3,1,4,2,5,7,7,3,3,3,2,2,4,4,4,2,4,5,4,4,5,3,1,3,3,4,4,4,4,2,1,2,5,3,3,3,5,5,3,4,3,3,2,4,4,3,5,4,3,1,3,3,4,4,4,3,4,4,4,4,2,3,4,4,4,4,2,4
"SMU",1994,2,5,1,4,2,1,0,0,2,NA,36.5,36.4,36.6,1.2931060791016,71,26,5,1,2,1,NA,4,4,5,NA,4,2,6,6,2,1,2,8,1,NA,NA,2,1,NA,1,NA,NA,NA,NA,NA,NA,NA,NA,NA,NA,3,3,4,4,4,4,3,3,4,4,4,4,4,4,3,3,2,2,2,2,2,3,2,2,4,2,2,4,4,4,4,3,4,4,3,4,4,4,4,3,4,2,2,3,2,4,4,5,1,2,2,5,2,1,2,2,2,3,2,1,3,3,4,3,1,3,3,2,2,2,3,2,2,2,3,3,4,2,1,2,3,2,2,5,5,5,5,5,5,5,5,5,4,5,5,4,4,4,4,2,2,2,2,2,2,2,2,2,2,2,3,2,2,4,2,4,4,5,1,1,1,2,3,3,5,5,2,2,2,2,2,4,2,2,4,4,4,4,2,3,4,4,4,4,4,4,4,4,4,4,4,4,1,1,1,1,1,4,3,3,2,4,2,2,2,2,4,4,4,4,4,4,2,4,4,4,4,3,3
"VCU",1994,2,7,2,3,2,1,3,0,2,NA,36.5,36.61111111,36.38888889,38.320495605469,91,14.44444444,5,1,2,1,NA,4,2,4,1,8,6,5,5,1,NA,2,5,1,NA,NA,3,2,3,1,NA,NA,NA,NA,NA,NA,NA,NA,NA,NA,4,5,5,5,4,1,5,3,5,3,5,5,5,3,3,5,2,1,2,2,2,4,2,4,5,3,2,5,4,5,3,4,4,1,5,5,5,5,5,5,4,1,2,2,1,3,4,5,5,6,4,4,5,5,5,6,5,7,1,3,1,5,2,4,4,6,2,7,4,5,3,3,3,4,1,4,1,2,3,7,7,5,4,3,5,3,5,4,4,4,5,5,5,7,7,7,5,6,5,4,5,1,4,3,1,5,4,4,3,3,1,1,4,2,1,3,3,2,2,3,2,2,2,1,3,5,4,1,5,1,5,1,1,1,3,5,5,3,3,1,1,1,3,5,4,3,2,4,4,4,3,3,2,2,3,3,5,5,5,1,1,4,5,3,4,1,1,4,5,2,2,4,1,5,3,4,3,4,2
"VCU",1994,2,7,1,3,2,1,0,0,2,NA,36.5,36.38888889,36.61111111,37.552200317383,100,12.77777778,5,1,2,1,NA,2,2,5,NA,8,4,5,5,2,2,2,2,3,1,4,1,1,NA,1,NA,NA,NA,NA,NA,NA,NA,NA,NA,NA,3,4,3,4,4,4,2,2,2,2,3,2,4,3,4,3,2,2,4,3,3,2,3,3,5,3,2,4,4,4,4,4,4,4,4,5,4,4,4,4,4,4,4,4,4,4,4,1,1,1,2,1,2,1,2,1,1,5,1,2,1,1,1,4,1,2,6,4,1,3,2,1,1,1,2,6,4,6,1,6,6,1,2,5,5,5,5,5,5,5,5,5,6,7,5,6,2,4,4,3,2,2,4,1,2,2,3,3,2,2,2,3,2,4,3,4,3,5,2,2,3,4,1,4,4,3,2,2,4,2,4,5,3,1,5,4,4,5,3,3,3,3,4,4,4,4,4,4,4,4,4,4,2,2,2,2,3,5,4,3,4,4,4,4,4,4,2,4,4,4,4,4,3,4,3,4,4,3,2
"METU",1994,2,7,1,4,2,1,8,0,2,NA,36.5,36,37,39.911697387695,78,8,3,2,2,1,NA,4,4,4,1,7,3,6,3,1,NA,2,8,1,NA,NA,1,1,NA,1,NA,NA,NA,NA,NA,NA,NA,NA,NA,NA,5,3,2,2,2,5,2,4,2,1,5,2,4,4,4,5,3,2,2,2,4,3,3,4,4,3,4,5,5,5,5,5,5,5,5,5,5,5,5,5,5,5,5,5,4,5,5,7,5,5,6,7,6,5,6,6,2,6,7,6,5,5,7,6,2,2,2,5,5,7,5,6,5,6,2,2,2,2,5,6,6,2,2,5,5,5,5,5,5,5,5,5,6,7,6,6,5,5,5,5,4,4,4,2,5,5,4,3,5,5,2,4,2,4,2,4,6,6,6,6,5,7,2,1,2,4,3,4,5,4,4,4,4,2,2,4,4,2,4,4,3,5,4,3,4,2,2,4,5,3,4,4,2,2,2,4,4,4,4,2,2,4,5,3,4,4,2,4,4,2,2,4,2,4,4,4,4,2,4
"UCSB",1994,2,6,2,2,2,1,2,0,2,NA,36.52777778,36.61111111,36.44444444,34.44119263,65,9.444444444,5,1,2,1,NA,4,4,5,NA,5,5,8,8,2,8,2,3,1,NA,NA,1,1,NA,1,NA,NA,NA,NA,NA,NA,NA,NA,NA,NA,3,2,2,4,4,4,1,3,2,2,3,4,3,4,2,5,3,3,3,4,4,2,3,3,5,2,4,2,4,2,4,2,2,4,2,4,4,3,4,2,4,2,4,2,2,2,4,4,3,4,4,4,4,3,4,3,3,3,4,4,4,3,3,4,3,3,2,4,2,3,5,3,3,3,3,3,3,3,5,3,2,3,4,3,4,4,4,4,3,2,4,4,6,3,5,4,4,3,5,4,2,3,3,3,2,4,2,3,4,2,2,4,1,2,1,4,4,5,4,4,4,4,2,4,4,4,4,3,3,3,3,4,4,2,3,4,4,2,2,2,3,3,4,4,4,4,4,4,4,2,4,3,2,2,2,3,2,3,2,4,3,3,3,4,2,3,2,3,4,3,4,3,4,3,4,3,4,2,4
"VCU",1994,2,2,2,3,2,1,1,1,2,NA,36.52777778,36.22222222,36.83333333,37.553802490234,91,14.44444444,5,1,2,1,NA,4,4,5,NA,4,1,4,4,1,NA,2,3,3,1,5,1,1,NA,1,NA,NA,NA,NA,NA,NA,NA,NA,NA,NA,3,3,3,4,3,3,2,2,2,3,3,4,3,3,4,4,3,3,3,3,3,2,3,3,4,2,4,4,4,2,4,3,3,4,4,4,4,4,4,4,4,4,4,4,4,3,4,2,2,3,3,4,2,2,3,2,2,1,2,6,4,2,4,2,4,3,2,2,2,2,2,4,2,2,2,2,2,2,2,2,2,1,2,4,4,4,4,4,3,3,4,4,5,6,6,6,5,5,5,4,4,4,2,3,4,4,3,2,4,4,2,3,1,2,2,4,5,4,4,4,2,2,2,4,4,4,1,4,4,4,4,4,3,2,4,5,5,3,4,4,4,4,4,4,4,5,4,4,3,3,4,4,2,2,2,2,4,4,3,4,3,4,4,4,4,4,2,4,4,4,4,4,2,5,4,4,4,2,4
"METU",1994,1,6,1,4,2,1,12,0,1,20,36.55,36.4,36.7,39.911697387695,49,6,3,2,1,1,NA,4,4,4,1,8,6,4,4,1,NA,2,8,1,NA,NA,5,2,8,2,"MetuBiz",NA,NA,NA,NA,7,NA,NA,NA,NA,1,2,4,2,1,3,4,1,2,4,4,2,1,2,1,3,2,2,2,2,2,4,2,2,4,3,1,2,1,1,2,2,2,1,2,2,2,2,2,4,2,2,2,2,2,2,1,2,2,2,2,6,2,2,2,2,2,2,2,2,2,2,2,2,1,2,2,6,1,2,1,2,2,1,2,2,2,2,2,2,2,2,2,5,5,5,5,5,5,5,5,5,5,4,5,4,5,4,4,2,2,2,2,2,2,1,2,4,2,1,1,2,4,2,2,4,4,6,1,1,1,2,2,2,2,5,3,4,4,2,2,5,5,1,4,4,4,3,2,2,4,4,2,1,5,4,4,4,5,4,4,5,1,1,5,1,1,4,1,5,4,2,3,5,3,4,1,4,2,4,4,4,2,4,4,4,4,5,2
"Serbia",1994,2,6,2,2,2,1,18,0,2,NA,36.55,36.6,36.5,44.818603515625,56,6,6,1,2,1,NA,4,2,5,NA,3,2,7,7,1,NA,2,8,1,NA,NA,2,1,NA,1,NA,NA,NA,NA,NA,NA,NA,NA,NA,NA,3,2,2,1,1,2,1,1,1,1,1,1,2,3,3,3,2,2,2,4,4,3,2,4,4,3,3,3,3,1,2,2,2,3,1,3,4,4,4,4,4,1,3,2,4,1,4,7,8,2,8,7,7,2,8,6,4,6,1,5,1,5,4,3,1,7,3,8,3,5,4,5,5,3,3,3,7,6,5,7,7,NA,3,4,3,4,4,3,3,1,4,5,7,7,7,7,7,7,7,5,5,4,5,4,4,5,5,2,4,4,2,2,2,2,2,3,2,4,1,4,4,4,2,4,4,4,2,4,4,1,4,5,4,4,2,3,5,4,4,5,2,4,3,4,3,3,3,4,1,3,5,4,4,4,4,3,1,4,3,4,4,2,2,4,3,2,1,3,4,3,2,4,3,4,4,4,2,2,4
"Kassel",1994,2,4,1,3,2,1,3,0,1,3,36.55,36.4,36.7,51,53,12,1,1,4,1,NA,4,4,4,1,5,3,7,4,2,1,2,8,1,NA,NA,1,2,2,1,NA,NA,NA,NA,NA,NA,NA,NA,NA,NA,3,4,3,4,2,3,3,1,2,3,3,3,3,4,4,3,3,3,4,3,4,3,4,4,3,4,4,2,4,1,4,1,2,1,3,4,5,4,3,2,4,1,3,3,2,1,4,5,4,5,5,5,4,5,4,4,5,6,5,3,4,3,4,2,4,2,3,4,3,3,2,2,2,2,4,3,3,4,2,4,3,2,3,4,4,4,4,5,3,2,3,4,6,5,6,5,6,6,6,2,2,2,2,3,2,3,2,2,2,2,2,2,2,2,2,5,7,6,6,5,5,5,3,2,2,4,4,3,3,3,3,2,2,1,2,2,2,2,4,4,4,4,3,4,4,4,4,4,4,3,3,4,2,2,3,4,4,4,4,3,4,2,3,4,2,3,2,5,5,3,3,4,3,5,3,5,3,1,5
"Tsinghua",1994,1,7,1,4,2,1,16,0,2,0,36.55,36.4,36.7,30.580093383789,87,17,7,3,2,1,0,4,2,4,1,5,2,4,4,1,1,2,1,1,1,1,1,2,1,1,"ÉÌÑ§Ôºµ³Ö§²¿",NA,NA,NA,NA,0,NA,NA,NA,NA,3,4,3,2,2,2,1,2,2,3,5,2,2,3,2,3,2,3,2,2,4,2,3,2,4,2,1,1,4,2,4,1,2,1,4,4,4,4,4,4,2,3,2,2,1,1,2,6,1,6,7,6,1,1,6,2,1,1,6,1,1,1,1,3,1,1,7,2,2,1,1,6,1,2,1,2,1,2,1,2,2,1,2,5,5,4,2,4,5,4,4,4,3,4,4,4,5,3,4,2,4,1,3,3,1,2,2,4,2,1,2,2,2,1,3,2,2,1,2,2,2,5,4,4,4,4,1,1,1,2,2,4,2,4,2,4,1,2,4,4,3,2,3,4,4,2,1,5,4,1,4,4,1,1,1,1,4,4,4,4,2,4,5,5,4,1,2,2,2,2,4,1,2,1,4,1,2,2,2
"METU",1994,2,7,1,4,2,1,1,2,1,7,36.55,36.4,36.7,39.911697387695,69,6,3,2,2,1,NA,4,2,4,1,4,3,3,2,1,NA,2,8,1,NA,NA,1,2,2,1,NA,NA,NA,NA,NA,NA,NA,NA,NA,NA,3,2,4,4,4,4,1,2,3,2,4,3,4,3,3,4,3,3,2,3,3,3,4,2,4,3,3,4,4,3,4,3,1,3,1,2,2,4,3,1,3,1,1,1,4,1,3,7,5,4,6,1,7,4,5,2,2,6,5,2,5,2,6,4,1,2,2,2,1,2,2,2,2,2,1,1,3,2,2,2,4,1,3,5,5,5,5,5,5,5,5,5,5,7,7,7,7,6,6,4,2,5,2,5,4,4,2,2,3,4,2,4,3,1,1,4,4,6,3,4,1,5,2,3,2,4,3,4,2,3,5,5,4,1,1,5,5,3,5,4,4,5,2,2,4,5,5,5,5,5,5,5,1,2,1,3,3,1,5,1,1,4,3,4,3,5,2,5,1,5,5,5,1,5,5,4,3,2,5
"Tsinghua",1994,2,7,2,4,2,1,4,0,2,0,36.55,36.7,36.4,39.142196655273,53,5,7,3,2,1,0,4,4,5,0,8,2,6,3,1,3,2,6,1,1,3,5,2,1,2,"Ë«Ñ§Î»¿Î³Ì","¼ªËû½ÌÑ§","¹«Ë¾×éÖ¯",NA,NA,3,2,2,NA,NA,3,3,4,4,5,4,1,5,2,3,4,4,3,2,3,2,2,2,2,3,1,3,2,3,4,2,2,2,3,2,4,4,4,2,4,2,4,3,2,4,2,2,2,2,3,2,2,6,3,2,5,6,3,4,5,3,2,3,2,4,2,4,3,3,4,6,3,4,2,2,3,4,5,3,3,2,6,2,5,3,2,2,2,3,2,2,3,4,5,4,3,4,3,2,4,6,5,3,4,3,3,3,3,4,4,3,4,3,2,3,2,2,1,4,1,3,3,4,3,2,5,3,2,4,5,4,1,2,3,2,4,4,2,1,2,4,4,1,4,4,2,2,4,4,4,3,4,5,3,3,4,2,3,4,1,5,5,4,2,3,2,4,2,4,4,4,2,4,4,3,2,4,4,5,5,5,4,3,4
"METU",1994,2,3,1,4,2,1,4,0,2,NA,36.55,36.6,36.5,39.911697387695,71,7,3,2,2,1,NA,4,4,4,1,4,3,5,5,1,NA,2,7,1,NA,NA,1,1,NA,1,NA,NA,NA,NA,NA,NA,NA,NA,NA,NA,2,5,1,4,2,1,3,1,1,2,2,2,2,2,3,2,2,2,2,2,3,2,3,2,3,4,2,4,4,4,4,5,2,4,3,5,5,4,5,4,4,2,2,4,2,2,5,6,3,6,6,7,5,6,5,5,2,5,3,2,5,2,7,3,2,1,1,3,2,4,2,2,2,2,1,5,2,6,2,3,4,2,2,4,4,4,4,4,4,2,4,4,3,3,3,5,3,3,2,2,2,2,2,2,2,2,2,2,2,3,2,2,1,3,2,5,6,2,1,5,4,2,5,1,5,5,1,1,5,5,1,5,5,5,5,5,2,4,5,5,2,5,5,4,2,3,3,5,4,2,4,4,2,2,2,2,2,3,2,4,2,2,2,4,3,2,2,4,4,2,1,4,4,2,1,4,2,1,2
"Poland",1994,2,7,1,4,2,1,36,42,1,4,36.55,36.5,36.6,53.127105712891,70,-3,9,1,2,1,NA,4,4,5,1,3,3,5,5,2,3,2,6,2,1,1,1,2,8,2,"zespol muzyczny",NA,NA,NA,NA,4,NA,NA,NA,NA,3,1,3,2,5,5,1,5,1,4,5,2,4,4,3,3,3,3,4,2,3,3,3,5,5,5,2,4,4,5,4,4,2,4,4,5,5,4,5,4,4,3,4,4,2,4,5,7,7,6,7,6,6,7,7,6,3,1,5,4,5,7,6,6,5,7,6,2,1,6,5,4,5,6,3,3,6,2,7,6,6,6,5,5,4,5,5,5,4,2,4,4,7,5,7,5,6,4,7,4,4,4,4,5,4,5,4,5,4,5,2,2,4,4,2,4,5,6,5,5,8,7,2,4,4,4,1,4,2,2,4,5,4,1,2,4,4,4,2,2,2,4,5,5,2,5,5,4,5,2,4,5,2,1,2,2,4,5,5,2,2,4,5,4,4,4,2,4,4,4,4,5,2,4,4,3,4,1,3
"SMU",1994,2,1,1,3,2,1,0,0,2,NA,36.55,36.5,36.6,1.2931060791016,70,26,5,1,2,1,NA,4,4,1,NA,3,3,7,4,1,NA,2,7,3,1,3,1,1,NA,1,NA,NA,NA,NA,NA,NA,NA,NA,NA,NA,2,2,2,3,2,2,1,4,2,1,3,2,2,4,4,3,2,2,3,3,3,3,1,3,5,3,4,5,5,4,5,5,5,4,5,5,5,5,5,5,5,5,5,5,5,4,5,6,6,4,7,3,7,2,6,2,6,2,6,3,5,3,7,4,3,2,2,5,4,3,4,6,3,2,1,2,2,2,7,5,5,2,2,5,4,4,5,5,5,5,5,5,6,7,7,7,6,7,7,2,2,1,2,4,2,4,4,1,2,2,1,1,1,5,2,5,6,6,6,6,4,7,2,4,4,2,2,5,1,2,5,4,4,1,2,2,4,4,4,4,5,5,1,4,5,5,5,5,3,5,5,5,1,1,1,5,2,5,2,4,1,4,2,4,5,4,1,4,5,5,5,5,1,2,5,4,4,2,4
"Poland",1994,2,7,1,3,2,1,3,1,1,10,36.57,36.61,36.53,52.25,56,1,9,1,1,2,1,4,2,2,2,8,6,5,5,2,2,2,4,2,1,1,3,1,NA,1,NA,NA,NA,NA,NA,NA,NA,NA,NA,NA,3,3,3,4,4,5,2,4,4,3,4,2,4,3,4,4,4,4,4,4,3,4,4,5,4,5,3,2,2,2,3,3,2,3,2,3,4,4,5,3,5,1,1,1,1,1,5,2,4,4,3,6,5,5,2,3,1,3,2,4,2,6,3,5,2,2,3,6,1,2,2,2,2,2,2,1,2,2,1,6,6,2,1,5,5,3,5,5,5,2,4,3,6,5,5,7,7,5,5,2,3,2,2,2,2,2,2,4,2,4,2,2,1,2,1,3,4,7,5,4,2,5,3,2,3,4,3,2,2,5,3,4,4,2,2,4,2,3,3,4,3,5,3,2,5,5,4,5,5,3,4,4,1,1,1,2,4,4,3,1,2,4,2,5,3,2,2,4,3,2,3,5,4,2,5,2,2,4,3
"SMU",1994,1,6,2,4,2,1,0,0,2,NA,36.6,36.5,36.7,1.2931060791016,70,26,5,1,2,1,NA,4,4,5,NA,1,NA,8,7,2,1,2,8,1,NA,NA,1,1,NA,1,NA,NA,NA,NA,NA,NA,NA,NA,NA,NA,3,2,5,4,2,2,4,4,3,4,4,3,2,3,4,3,2,2,2,2,3,2,3,4,5,2,3,2,2,1,4,1,1,1,1,1,4,2,4,4,2,1,1,1,2,2,2,5,2,2,5,2,2,2,4,3,4,2,2,6,2,6,6,2,2,2,3,3,2,3,2,2,2,2,2,2,5,2,3,2,2,2,5,5,5,5,5,5,5,4,5,5,5,5,5,5,5,5,5,3,2,2,3,3,2,4,4,2,2,4,2,3,2,2,3,4,5,3,2,2,1,3,2,4,5,5,2,3,3,3,3,4,3,2,4,4,4,4,1,4,3,3,4,4,3,3,3,4,4,4,4,4,2,2,3,3,3,3,4,2,2,3,4,3,2,2,3,3,3,3,3,3,4,4,3,3,3,2,3
"METU",1994,2,6,2,1,2,1,3,0,2,NA,36.6,36.4,36.8,39.911697387695,74,12,3,2,2,1,NA,4,2,5,NA,1,NA,7,2,1,NA,2,6,1,NA,NA,1,1,NA,1,NA,NA,NA,NA,NA,NA,NA,NA,NA,NA,3,1,1,5,3,2,1,1,2,3,2,3,3,4,4,5,3,3,2,3,4,3,3,4,5,4,4,2,1,3,2,1,2,2,1,2,4,3,3,2,3,1,1,1,2,1,4,5,2,2,2,5,5,2,2,2,2,2,2,3,1,2,5,2,2,2,2,6,5,2,4,6,5,3,2,4,2,2,7,5,6,2,3,3,2,4,2,2,3,3,3,2,6,7,6,3,6,6,6,2,2,1,2,1,3,3,2,4,2,2,2,1,3,3,4,5,5,4,2,3,4,4,2,1,4,4,2,1,5,2,1,5,5,1,4,4,4,4,3,4,3,3,4,5,4,1,4,4,2,2,4,2,2,4,3,1,4,4,3,4,2,3,4,4,2,1,4,4,3,1,1,3,5,4,2,4,1,3,1
"METU",1994,1,7,1,3,2,1,3,2,2,NA,36.6,36.3,36.9,39.911697387695,78,8,3,2,1,1,NA,4,4,4,1,5,5,4,4,1,NA,2,6,1,NA,NA,2,1,NA,1,NA,NA,NA,NA,NA,NA,NA,NA,NA,NA,4,4,5,4,3,4,2,3,5,3,4,3,5,3,2,2,2,3,2,3,4,2,2,4,4,2,3,1,2,2,2,2,3,3,1,2,4,2,4,4,3,2,3,2,2,3,3,4,2,2,5,5,6,1,6,2,3,4,2,5,2,4,6,4,2,6,5,2,3,4,4,3,3,3,5,2,3,2,2,3,1,1,2,5,4,3,4,4,4,3,3,3,4,4,4,4,4,3,4,3,3,1,3,2,3,4,3,3,4,2,2,3,2,4,3,4,5,3,3,3,2,4,3,4,4,5,4,3,3,4,2,4,3,2,2,4,4,3,3,1,3,4,4,4,3,5,4,5,4,3,4,4,2,2,1,2,3,4,5,4,4,3,5,4,3,3,3,4,3,3,3,4,3,4,2,3,3,3,1
"Oxford",1994,1,6,2,3,2,1,0,1,2,NA,36.6,36.4,36.8,51.75,74,2.777777778,5,1,2,1,NA,4,4,5,NA,2,1,3,3,1,NA,2,8,1,NA,NA,3,1,NA,1,NA,NA,NA,NA,NA,NA,NA,NA,NA,NA,4,3,4,3,2,4,2,3,3,3,2,2,4,3,4,4,2,3,3,3,3,3,2,4,4,2,3,2,3,1,2,2,1,2,2,4,1,2,1,2,1,3,4,4,2,4,3,5,6,4,5,6,6,5,5,5,3,6,5,4,5,6,2,4,1,2,3,4,4,3,2,3,4,3,2,3,6,3,3,5,4,3,4,4,4,4,4,4,4,4,4,4,4,5,4,6,5,5,3,3,4,1,5,3,2,4,4,4,2,2,2,2,2,3,2,4,6,4,4,4,2,2,4,4,4,4,3,1,3,3,2,4,4,2,5,4,3,3,3,2,2,4,2,4,4,4,4,5,4,4,4,4,2,2,2,4,4,5,3,2,1,1,3,4,2,4,4,5,4,4,4,4,2,3,4,4,4,3,4
"Poland",1994,2,7,1,4,2,1,21,1,2,NA,36.6,36.6,36.6,54.100006103516,49,10,9,1,2,1,NA,4,4,4,1,3,1,5,5,2,1,2,8,6,1,4,1,1,NA,1,NA,NA,NA,NA,NA,NA,NA,NA,NA,NA,2,1,1,4,2,2,1,1,1,1,1,2,3,5,3,4,4,2,2,2,4,2,2,5,4,2,5,4,1,1,4,1,2,2,1,5,1,4,4,4,4,1,1,1,1,2,4,6,6,6,6,7,6,6,6,6,6,2,6,5,3,6,5,6,2,2,5,6,1,5,1,1,3,2,3,1,5,3,2,6,6,3,3,4,4,4,5,5,4,2,4,4,7,6,7,6,6,7,7,4,4,4,4,4,2,4,2,2,4,5,4,2,1,2,1,5,6,7,8,8,8,8,1,2,1,5,5,4,2,2,5,2,2,1,2,4,4,2,4,4,2,4,2,4,4,5,4,5,5,4,4,4,1,2,1,1,1,1,2,1,4,4,2,4,3,2,1,1,5,4,4,4,4,5,4,5,4,1,5
"Kassel",1994,2,7,1,4,2,1,1,0,2,NA,36.6,36.5,36.7,NA,55,5,1,1,1,1,NA,4,4,4,1,1,NA,7,6,1,NA,2,8,3,8,8,1,2,2,2,"Yoga","Bogenschie?en",NA,NA,NA,1,10,NA,NA,NA,4,5,5,5,3,4,4,4,4,4,4,5,4,2,5,3,2,2,2,2,3,2,2,4,3,2,3,1,4,2,3,3,2,1,4,2,4,4,1,5,1,1,1,1,4,1,2,2,2,2,2,3,4,4,5,2,3,3,2,2,3,1,1,2,2,6,2,6,2,2,2,2,2,2,1,2,2,3,1,5,5,2,2,5,3,5,5,3,3,1,4,4,3,4,4,4,4,5,5,2,2,2,2,2,3,2,4,2,2,2,2,1,4,4,2,4,5,5,3,3,5,6,2,4,3,4,3,4,4,3,3,4,3,2,3,3,3,3,2,2,2,3,4,2,4,3,3,4,3,3,4,3,2,3,2,4,4,4,4,2,2,2,3,4,4,2,2,4,4,4,3,3,4,4,3,4,2,2,3
"METU",1994,2,7,2,3,2,1,NA,NA,2,NA,36.6,36.2,37,39.911697387695,71,8,3,2,2,1,NA,4,4,5,NA,8,8,3,2,1,NA,2,2,1,NA,NA,1,1,NA,1,NA,NA,NA,NA,NA,NA,NA,NA,NA,NA,5,4,3,5,5,4,3,2,4,4,4,5,4,1,3,3,3,3,3,3,3,3,3,2,4,2,2,4,4,2,3,2,2,2,2,2,2,2,4,2,4,2,2,2,2,2,4,6,2,4,5,6,4,4,6,4,4,4,5,4,4,5,4,2,4,2,4,6,4,4,4,4,4,4,2,4,3,2,4,6,4,2,4,5,5,5,5,5,5,5,5,5,6,6,6,6,4,4,4,2,4,3,2,2,3,2,2,1,2,1,2,2,4,2,3,5,6,6,2,2,2,1,1,1,3,5,3,4,3,3,5,5,4,1,1,3,5,2,3,3,2,4,4,4,4,4,4,3,3,3,3,3,2,2,2,3,4,3,4,2,2,4,4,4,3,2,1,4,4,4,3,2,1,3,5,4,3,1,3
"Oslo",1994,2,5,1,3,2,1,1,0,2,NA,36.6,36.5,36.7,NA,91,-2,4,1,1,1,NA,4,1,4,1,4,1,6,6,1,NA,2,4,3,1,5,1,1,NA,1,NA,NA,NA,NA,NA,NA,NA,NA,NA,NA,2,2,2,5,3,4,2,2,2,2,3,4,4,4,2,4,3,4,3,4,4,4,4,3,4,4,4,3,4,3,4,2,2,3,2,4,2,3,3,2,2,2,2,2,1,4,2,6,4,5,5,4,4,1,5,4,2,5,5,2,3,5,5,7,2,5,2,4,2,2,2,3,2,2,2,3,4,2,2,2,2,2,3,4,4,4,4,4,4,3,4,4,3,4,4,3,5,4,4,3,4,1,3,2,3,3,4,3,4,3,2,2,2,5,2,3,2,2,1,1,1,1,4,4,4,2,2,2,4,4,2,5,4,2,4,4,3,3,3,3,1,2,4,4,3,3,2,4,3,2,4,3,2,3,2,1,1,4,4,1,2,4,3,3,4,4,4,3,4,4,4,3,4,3,3,3,3,2,4
"Tsinghua",1994,2,3,2,3,2,1,0,0,2,0,36.6,36.5,36.7,30.580093383789,71,16,7,3,2,1,0,4,1,5,0,3,2,2,2,1,1,2,2,1,1,1,1,2,1,2,"o",NA,NA,NA,NA,NA,NA,NA,NA,NA,2,4,4,4,4,2,1,2,4,3,5,3,4,3,3,4,3,2,2,3,4,2,2,3,4,2,3,4,3,2,4,2,4,3,4,4,5,4,3,4,3,2,3,2,2,2,4,6,4,4,6,6,2,6,6,4,4,2,4,4,2,6,4,6,4,6,4,4,2,2,2,4,4,4,4,2,3,2,4,4,6,4,4,3,3,4,3,3,4,4,4,4,3,2,4,5,6,6,4,3,3,3,3,2,2,3,3,3,2,2,2,2,3,3,2,3,2,4,1,2,2,2,2,4,4,4,2,2,2,3,3,4,2,1,1,4,4,2,4,4,2,3,4,4,4,3,3,3,3,2,4,2,3,3,3,3,3,4,4,2,2,4,3,4,4,2,3,4,2,2,2,2,4,3,3,3,3,3,3
"Poland",1994,2,6,2,4,2,1,27,6,2,NA,36.6,36.5,36.7,52.286193847656,48,8,9,1,2,1,NA,1,4,5,1,3,5,5,3,1,NA,2,8,2,1,1,1,1,NA,1,NA,NA,NA,NA,NA,NA,NA,NA,NA,NA,3,4,2,3,3,4,1,3,2,3,4,1,3,5,4,5,4,3,4,1,3,2,3,5,4,3,4,4,4,4,4,4,4,4,2,4,4,4,4,4,4,2,4,4,4,2,4,6,5,5,5,7,5,4,4,5,3,2,2,6,2,5,6,5,2,6,3,3,2,5,2,2,5,5,5,2,7,7,2,4,3,5,5,5,4,3,5,4,4,3,4,4,7,3,5,3,7,7,7,4,4,4,4,3,3,4,4,2,3,4,3,2,2,3,2,5,8,4,4,4,4,1,4,4,2,5,3,3,3,2,4,4,3,3,4,2,2,2,4,4,3,4,4,5,5,5,5,5,4,2,5,4,5,4,4,4,4,2,2,4,2,4,4,4,3,2,2,2,4,4,3,4,5,4,4,4,4,1,4
"Tsinghua",1994,1,7,2,2,2,1,5,1,2,0,36.6,36.5,36.7,30.580093383789,60,13,7,3,2,1,0,4,4,5,0,4,3,7,6,1,1,2,6,2,4,3,3,2,1,1,"±ÏÒµÂÛÎÄ½»Á÷Ð¡×é",NA,NA,NA,NA,2,NA,NA,NA,NA,4,5,2,4,4,4,1,2,2,4,4,2,2,2,4,3,2,2,2,3,2,3,3,2,5,3,3,4,5,2,4,4,2,5,4,4,5,5,4,4,5,4,4,2,2,2,4,3,3,3,3,5,3,3,3,3,3,3,3,3,2,3,3,5,3,3,3,5,3,3,5,5,3,3,2,3,5,2,3,3,5,3,3,5,5,4,5,5,4,4,5,5,4,2,4,4,5,3,5,2,2,2,2,2,2,2,2,2,2,2,2,2,1,4,2,3,2,4,3,2,4,3,2,4,4,4,2,4,2,4,4,4,4,2,2,4,4,2,4,4,2,2,4,2,4,2,2,4,4,4,4,5,2,2,2,2,4,4,4,2,2,4,2,4,4,2,2,4,2,2,2,4,4,2,4,4,4,2,4
"Portugal",1994,2,7,1,4,2,1,0,2,2,NA,36.6,36.6,36.6,38.716705322266,42,13,8,1,1,2,2,4,4,4,4,5,4,6,6,1,NA,2,6,1,NA,NA,4,1,NA,1,NA,NA,NA,NA,NA,NA,NA,NA,NA,NA,3,3,2,3,3,5,3,2,2,3,2,5,1,3,2,4,3,2,2,3,3,4,3,4,3,2,2,4,4,3,4,4,4,5,4,4,4,4,5,3,4,2,3,3,3,3,4,3,1,1,2,2,6,3,2,1,1,1,1,3,1,2,1,1,1,2,3,6,5,1,2,2,1,4,4,4,1,1,2,6,6,2,2,5,5,5,5,5,5,5,5,5,4,6,6,5,4,4,4,2,2,2,3,2,2,2,2,2,2,5,3,1,3,2,3,5,5,2,1,5,2,1,1,4,2,4,4,3,3,4,4,2,1,3,4,5,4,4,5,4,4,4,3,4,4,2,1,1,3,3,4,4,2,4,3,3,5,4,2,1,3,3,3,4,4,5,1,5,5,5,4,3,1,5,3,3,2,2,3
"Tsinghua",1994,2,7,1,3,2,1,4,0,2,0,36.6,36.7,36.5,30.580093383789,65,16,7,3,2,1,0,4,4,5,0,3,3,4,1,1,1,2,8,1,1,4,1,2,1,2,NA,NA,NA,NA,NA,NA,NA,NA,NA,NA,2,2,1,3,4,3,1,1,2,1,1,1,1,1,3,2,3,4,3,2,2,3,4,2,4,4,2,5,5,5,5,3,3,4,4,5,5,5,5,5,4,2,3,2,4,3,4,7,3,4,6,7,3,6,3,4,2,2,5,4,5,1,6,3,5,2,2,2,4,1,2,5,2,4,1,4,4,2,4,2,1,5,6,4,4,4,4,5,5,5,5,5,4,2,4,3,3,4,4,2,2,1,1,1,1,1,1,1,2,1,4,3,1,4,2,1,3,4,6,5,1,1,2,4,5,4,2,3,3,4,4,5,2,1,4,5,5,2,2,2,1,1,1,3,5,3,2,5,5,3,5,4,2,2,3,2,3,2,4,1,2,3,2,4,4,1,1,4,4,2,2,5,1,3,4,2,3,3,2
"VCU",1994,2,6,1,4,2,1,0,0,2,NA,36.61111111,36.61111111,36.61111111,37.496002197266,87,13.33333333,5,1,1,1,NA,3,1,2,1,5,4,6,3,1,NA,2,4,3,1,8,1,1,NA,2,"Student Admissions Ambassadors",NA,NA,NA,NA,5,NA,NA,NA,NA,3,3,4,4,4,2,3,3,3,4,5,5,4,2,3,4,2,2,2,2,2,2,3,3,4,2,2,4,4,2,4,2,2,2,2,4,4,2,4,4,2,2,2,4,4,4,2,2,2,2,2,2,2,2,2,2,1,2,2,2,2,2,2,2,2,2,2,2,2,3,2,2,2,2,2,2,2,2,2,2,2,2,2,5,4,4,4,3,4,4,4,4,7,6,6,6,5,6,5,2,2,2,2,2,2,2,2,4,2,2,4,3,2,4,2,5,6,6,4,5,5,3,2,4,2,4,3,2,2,2,4,4,4,2,4,4,2,4,4,4,2,2,4,4,4,4,4,5,3,4,4,3,2,3,2,2,4,4,4,2,2,4,3,4,2,4,2,2,4,4,4,4,2,4,4,4,4,2,2
"VCU",1994,1,1,1,3,2,1,0,0,2,NA,36.61111111,36.72222222,36.5,37.552200317383,94,13.33333333,5,1,2,1,NA,4,1,5,NA,3,3,3,5,2,1,2,1,3,1,2,1,1,NA,1,NA,NA,NA,NA,NA,NA,NA,NA,NA,NA,3,1,3,3,3,3,1,2,3,3,2,4,3,3,3,3,3,3,3,3,3,3,3,3,3,3,3,4,4,2,4,4,3,4,5,5,4,4,4,4,4,4,4,4,4,4,4,4,4,4,4,4,4,4,4,4,4,4,4,4,4,4,4,4,4,4,4,4,4,4,4,4,4,4,4,4,4,4,4,4,4,4,4,4,4,4,4,4,4,4,4,4,6,5,5,5,5,5,5,2,2,2,2,4,2,4,2,2,2,5,3,4,1,4,1,4,4,3,3,2,1,1,4,4,2,2,2,2,4,2,5,1,1,2,5,1,2,2,3,2,2,2,4,5,4,2,2,4,2,3,2,2,2,2,2,2,4,5,2,2,2,4,4,4,4,2,2,4,4,2,1,2,2,4,2,2,2,2,2
"UCSB",1994,1,7,1,2,2,1,5,0,2,NA,36.63888889,36.44444444,36.83333333,34.50210571,80,8.333333333,5,1,1,1,NA,3,3,4,1,3,1,5,3,1,NA,2,3,3,1,7,2,2,3,1,NA,NA,NA,NA,NA,NA,NA,NA,NA,NA,1,1,1,4,1,2,1,1,1,1,1,1,3,4,4,5,2,4,4,2,4,5,4,4,4,3,4,4,5,2,5,4,2,3,4,2,4,4,4,5,4,1,1,1,4,2,4,6,5,4,6,7,2,2,7,2,6,2,7,1,5,5,7,5,1,2,5,3,3,4,2,2,4,4,3,3,1,3,2,4,3,5,5,5,2,5,5,4,5,5,5,5,4,6,5,6,3,3,4,1,3,1,2,1,2,2,3,1,1,2,4,3,1,1,2,1,3,4,2,2,2,2,2,2,4,4,2,2,4,3,3,4,3,1,5,5,5,3,5,4,1,1,5,4,4,2,2,2,1,3,4,1,4,4,4,3,4,2,4,5,2,3,4,4,4,2,2,4,4,5,3,3,1,4,4,3,5,3,2
"VCU",1994,2,7,1,3,2,1,20,0,2,NA,36.63888889,36.61111111,36.66666667,37.552200317383,64,10.55555556,5,1,1,1,NA,4,4,4,2,1,NA,5,4,1,NA,2,6,1,NA,NA,1,1,NA,1,NA,NA,NA,NA,NA,NA,NA,NA,NA,NA,4,3,4,3,2,4,1,3,4,4,5,4,3,2,3,3,3,2,2,3,2,3,3,3,4,3,3,4,4,4,4,5,4,5,2,4,4,4,4,4,2,4,4,3,4,4,4,2,2,1,2,2,3,2,2,1,1,2,1,2,2,2,1,2,1,1,1,2,1,1,1,1,1,1,1,1,1,1,1,1,1,1,1,4,4,4,4,4,3,2,2,2,2,5,5,5,3,3,3,1,1,1,1,1,1,1,1,1,1,1,3,2,1,2,5,3,3,2,2,2,2,2,2,2,4,4,3,5,4,4,4,4,2,2,2,2,2,2,2,2,2,2,4,4,5,5,4,5,4,4,3,3,1,1,1,2,5,4,4,1,2,2,2,2,4,4,1,3,4,3,3,3,2,4,3,4,4,4,4
"Tsinghua",1994,2,7,2,2,2,1,NA,NA,2,0,36.65,36.6,36.7,30.666702270508,62,15,7,3,2,1,0,4,2,5,0,8,1,6,5,1,1,2,3,2,1,1,8,2,1,2,NA,NA,NA,NA,NA,NA,NA,NA,NA,NA,3,1,2,4,4,5,1,2,2,2,3,1,2,3,3,3,4,4,3,3,2,4,4,2,5,3,3,4,2,2,2,2,1,2,4,4,4,2,4,2,4,2,2,2,2,2,4,5,5,5,5,4,4,4,6,5,2,6,4,6,2,6,4,6,2,3,2,6,5,1,6,5,2,5,2,2,2,2,6,3,6,4,4,5,4,5,3,5,5,5,5,5,3,2,2,5,4,4,4,2,2,4,2,2,3,2,2,3,2,2,2,4,2,2,2,4,4,6,4,4,4,4,2,2,5,5,2,5,2,2,5,3,2,2,1,2,4,2,4,4,2,2,4,4,4,2,4,4,3,3,4,2,2,2,2,4,3,4,3,2,2,3,4,4,4,3,2,4,2,2,2,5,2,3,5,4,4,2,2
"SMU",1994,2,3,2,2,2,1,0,0,2,NA,36.65,36.6,36.7,1.2931060791016,70,26,5,1,2,1,NA,4,2,5,NA,1,NA,3,1,1,NA,2,8,1,NA,NA,2,1,NA,1,NA,NA,NA,NA,NA,NA,NA,NA,NA,NA,3,2,2,3,3,4,4,3,2,2,3,2,3,3,3,3,2,3,3,3,3,2,3,3,3,3,3,3,3,2,4,3,4,4,2,3,4,2,2,3,3,2,3,2,3,2,3,4,5,4,4,4,4,4,4,3,2,3,4,4,4,2,5,2,6,4,3,2,3,4,4,4,3,6,2,2,3,2,4,3,4,3,2,4,3,4,3,3,3,3,3,3,3,4,4,4,5,5,5,2,4,3,3,3,2,3,3,3,3,2,2,4,2,4,2,2,2,4,2,3,2,2,2,4,4,4,2,2,2,3,4,4,4,2,4,4,4,3,4,3,3,3,4,4,3,4,3,4,3,3,4,3,2,2,3,4,4,4,4,3,4,4,4,4,4,2,4,3,4,4,4,3,4,3,4,3,3,4,2
"Tsinghua",1994,2,7,2,4,2,1,0,0,2,0,36.65,36.4,36.9,30.580093383789,60,13,7,3,2,1,0,4,4,5,0,2,1,5,4,1,1,1,1,1,1,1,8,2,1,2,NA,NA,NA,NA,NA,0,0,0,0,0,4,4,3,4,4,4,3,4,4,4,4,4,4,1,1,1,2,2,2,3,1,2,2,1,4,2,2,4,4,2,4,2,2,4,2,4,3,2,2,3,2,2,2,2,2,2,2,3,3,2,5,3,3,3,2,3,3,5,5,2,2,2,2,2,3,4,3,3,3,3,3,3,2,2,3,2,5,3,2,3,4,3,3,4,4,4,4,4,4,3,4,4,6,2,4,5,6,5,5,2,2,2,2,2,2,2,2,2,2,2,2,3,2,2,2,4,6,4,1,2,2,2,2,4,4,4,1,2,4,4,4,4,2,2,3,3,3,2,2,3,3,3,3,4,4,3,3,4,4,3,5,4,2,2,2,2,2,4,2,2,2,3,2,4,3,2,2,4,4,4,3,4,4,4,4,4,4,2,4
"Serbia",1994,2,7,1,3,2,1,0,0,2,NA,36.65,36.7,36.6,44.818603515625,65,8,6,1,2,1,NA,4,4,4,2,4,3,4,4,1,NA,2,5,1,NA,NA,1,1,NA,1,NA,NA,NA,NA,NA,NA,NA,NA,NA,NA,5,5,5,4,4,4,5,4,4,4,5,4,3,3,4,5,2,2,3,3,3,3,3,5,5,2,3,4,4,4,4,2,2,3,1,4,4,4,4,3,3,2,3,2,2,2,4,2,1,2,2,5,8,2,1,1,1,1,1,7,1,2,7,2,2,2,NA,8,1,2,1,1,1,NA,1,1,1,1,2,6,6,1,1,5,5,4,5,5,5,4,5,5,3,4,4,4,3,3,3,2,3,2,2,2,2,1,1,3,1,2,3,1,2,1,2,3,4,4,1,2,1,4,2,3,3,5,3,3,4,3,4,3,2,3,3,2,2,3,4,3,3,3,3,3,5,5,1,1,1,3,3,3,3,2,1,2,2,4,3,3,2,3,3,2,4,1,2,4,4,1,2,5,1,5,4,4,3,3,2
"Tsinghua",1994,2,7,1,1,1,1,NA,0,2,0,36.65,36.5,36.8,30.580093383789,66,13,7,3,2,1,0,4,4,5,0,4,1,2,2,1,1,2,8,3,4,8,1,2,1,2,NA,NA,NA,NA,NA,NA,NA,NA,NA,NA,5,2,3,5,4,5,2,3,2,3,5,1,4,2,5,5,3,3,3,4,3,5,3,4,5,2,2,5,4,2,5,5,3,5,5,5,5,5,5,5,2,5,3,2,2,4,4,7,6,6,6,7,5,7,6,6,6,7,2,5,6,7,6,4,1,4,1,3,3,1,4,5,3,3,2,2,4,3,6,2,2,2,3,5,4,5,5,5,4,4,4,5,2,1,3,5,4,2,2,2,3,1,1,1,1,1,4,2,1,1,1,2,1,4,1,5,5,7,4,4,1,1,1,3,3,4,2,1,1,1,5,5,2,1,4,3,3,2,5,4,3,3,4,4,3,4,4,5,3,4,5,3,3,4,2,1,2,5,1,1,1,3,5,1,5,5,4,3,2,2,4,4,2,3,5,4,3,3,4
"VCU",1994,2,3,2,3,2,1,1,0,2,NA,36.66666667,36.61111111,36.72222222,38.793197631836,99,12.77777778,5,1,2,1,NA,4,4,5,NA,3,2,5,5,1,NA,2,2,3,1,3,1,1,NA,1,NA,NA,NA,NA,NA,NA,NA,NA,NA,NA,1,5,5,5,5,1,5,1,5,5,1,5,5,3,3,4,3,2,3,3,3,3,3,5,3,1,3,1,1,1,1,1,1,1,1,1,1,1,1,1,1,1,1,1,1,1,1,1,1,1,1,1,1,1,1,7,1,7,1,1,1,1,1,1,1,1,7,1,7,1,1,1,7,7,7,7,7,7,1,7,7,7,7,3,3,3,3,3,3,3,3,3,1,1,1,1,1,1,1,1,1,1,5,1,1,1,1,1,1,1,5,1,5,1,5,5,2,4,1,2,1,1,3,3,3,2,2,3,1,2,3,4,4,1,1,1,1,1,1,1,1,1,1,1,1,1,1,1,1,1,1,1,1,1,1,1,1,1,1,1,1,1,1,1,1,1,1,1,1,1,1,1,1,1,1,1,1,1,1
"VCU",1994,2,7,1,4,2,1,6,0,2,NA,36.69444444,36.66666667,36.72222222,37.502304077148,45,17.77777778,5,1,2,1,NA,4,4,4,2,5,3,3,3,2,8,2,8,3,3,8,3,1,NA,1,NA,NA,NA,NA,NA,NA,NA,NA,NA,NA,1,3,3,2,1,2,4,3,2,1,5,4,1,3,2,4,2,2,1,2,1,3,3,2,5,1,3,4,3,4,4,1,1,3,2,4,4,4,4,4,4,1,1,1,4,2,4,1,5,1,2,2,4,2,3,5,1,6,5,1,5,5,4,2,1,4,1,2,1,2,1,1,1,1,1,1,1,1,1,3,2,1,1,5,5,3,4,5,5,4,3,4,3,1,1,1,1,1,1,3,4,1,3,1,3,3,2,2,3,2,2,4,2,1,2,5,7,7,6,6,6,6,3,4,5,5,4,1,3,5,3,5,2,1,4,4,4,4,2,2,1,5,4,2,5,5,5,5,3,5,4,3,1,1,3,5,5,5,2,2,2,4,3,4,2,5,3,3,5,5,5,5,1,3,5,5,3,2,4
"UCSB",1994,1,6,2,2,2,1,25,0,2,NA,36.69444444,36.38888889,37,34.4329071,86,12.22222222,5,1,2,1,NA,4,4,5,NA,2,2,4,4,1,NA,2,1,1,NA,NA,1,1,NA,1,NA,NA,NA,NA,NA,NA,NA,NA,NA,NA,3,1,1,4,2,3,1,1,2,2,2,2,3,4,4,4,3,4,4,4,4,3,4,3,5,3,4,4,4,4,4,4,4,4,4,4,4,2,4,3,4,4,2,3,1,3,4,5,5,5,5,6,4,5,6,5,3,2,5,5,5,7,5,6,4,6,3,5,3,3,3,3,6,6,3,3,3,5,2,5,5,5,7,4,4,4,4,4,3,5,4,4,7,6,6,6,7,6,7,2,3,4,2,2,2,2,2,2,2,2,5,3,2,2,2,5,2,2,2,2,2,2,3,4,4,2,1,2,4,5,5,5,4,2,4,5,5,3,2,4,1,4,4,5,4,3,1,4,3,1,3,3,2,4,2,2,1,2,2,1,3,5,4,2,4,1,2,4,4,2,2,2,4,2,2,2,4,2,5
"Serbia",1994,2,7,2,3,2,1,8,6,2,NA,36.7,36.5,36.9,44.818603515625,53,6,6,1,2,1,NA,4,4,5,NA,6,5,2,2,1,NA,2,8,1,NA,NA,3,1,NA,1,NA,NA,NA,NA,NA,NA,NA,NA,NA,NA,4,1,4,4,4,4,4,2,2,2,4,5,4,4,3,5,3,3,4,3,4,3,4,5,4,4,4,1,1,1,1,1,2,2,1,1,4,4,2,4,2,1,1,1,2,1,1,4,2,4,2,8,8,8,4,NA,2,5,2,2,8,2,4,2,2,4,NA,2,NA,2,4,2,NA,NA,NA,NA,NA,NA,4,4,NA,4,NA,4,4,3,4,4,4,3,3,4,7,5,7,6,7,6,7,2,2,1,2,2,4,2,1,1,4,2,2,4,2,2,2,5,7,7,7,7,7,7,2,3,3,4,4,3,4,3,3,2,2,4,2,3,2,4,3,4,4,4,4,3,3,4,3,3,2,2,2,4,2,4,3,4,2,4,4,4,2,3,3,4,4,3,2,4,4,4,4,4,2,4,4,4,3,2,4
"Tsinghua",1994,2,7,2,3,2,1,0,0,2,0,36.7,36.8,36.6,31.45930480957,70,14,7,3,2,1,0,4,2,5,0,3,1,4,3,1,1,2,8,1,1,1,2,2,1,1,"ÕÐÉú¾ÍÒµ´¦Ñ§ÉúÖúÀí²¿","ÉçÍÅ","ÇÞÊÒ","°à¼¶",NA,4,2,NA,NA,NA,3,4,3,4,4,5,1,1,2,5,3,2,3,2,2,2,4,3,2,3,2,3,4,2,2,4,1,1,3,1,2,1,2,1,4,4,3,2,2,1,2,1,1,2,2,1,1,3,4,4,4,3,3,2,5,5,4,3,2,5,2,2,4,3,2,3,3,3,3,4,4,5,3,4,4,3,6,3,5,5,5,3,4,5,5,5,4,5,5,4,3,3,3,1,4,4,2,2,3,3,2,2,2,4,2,4,2,3,1,4,3,4,1,2,1,3,5,4,2,2,2,4,1,4,5,4,1,4,3,3,3,5,4,2,4,2,2,3,1,5,4,2,3,2,2,3,4,5,4,2,3,4,3,2,3,3,4,2,2,2,2,4,4,4,3,2,2,4,4,4,2,1,2,2,3,3,3,3,4
"Tsinghua",1994,2,7,1,3,2,1,1,0.5,2,0,36.7,36.4,37,30.580093383789,61,10,7,3,2,1,0,4,4,5,0,3,2,3,2,1,1,1,8,1,1,1,1,2,1,1,"Éç»áÈÏÖªÑ§Ï°Ð¡×é",NA,NA,NA,NA,5,NA,NA,NA,NA,3,3,2,3,3,4,2,3,2,2,4,2,3,3,4,3,3,3,3,3,3,3,3,2,3,3,3,2,2,2,3,2,2,2,2,3,2,2,2,2,2,2,2,2,2,3,2,2,2,2,2,4,2,2,2,2,2,2,2,6,2,2,3,3,3,2,3,2,2,2,2,2,2,2,2,2,2,2,2,3,2,3,2,4,4,4,4,4,4,4,4,4,3,2,4,6,5,5,5,2,2,3,2,2,3,2,2,4,2,2,2,4,2,2,2,3,3,4,3,3,2,3,2,4,5,3,1,3,4,4,3,5,3,2,5,5,2,2,3,4,3,4,4,4,3,4,4,4,3,4,4,3,4,3,4,3,2,2,3,4,4,3,3,4,4,4,2,4,4,2,2,4,2,4,3,4,4,1,4
"SMU",1994,2,3,1,2,2,1,1,0,2,NA,36.7,36.8,36.6,1.2931060791016,71,26,5,1,2,1,NA,4,1,5,NA,1,NA,6,3,2,2,2,8,3,1,5,1,1,NA,1,NA,NA,NA,NA,NA,NA,NA,NA,NA,NA,2,1,2,1,5,5,1,2,3,2,2,2,3,5,5,5,1,4,4,4,5,1,5,1,5,4,5,2,4,1,5,3,1,1,4,2,1,1,3,3,1,1,1,1,1,3,1,3,5,5,3,4,6,1,7,7,3,3,6,2,1,7,5,6,7,5,5,7,1,3,2,4,5,6,5,5,6,6,1,3,3,1,6,1,1,1,1,1,1,1,1,1,5,7,2,6,6,3,5,4,4,5,2,5,5,4,3,1,4,3,2,2,2,3,1,5,6,4,5,4,1,3,2,5,5,1,1,1,3,5,2,5,5,2,4,5,5,4,1,5,2,1,5,4,3,5,1,3,1,1,5,1,1,1,4,2,3,4,3,4,4,4,4,5,5,1,3,3,4,1,3,3,4,3,4,1,1,1,5
"Tsinghua",1994,1,7,2,3,2,1,0,0,2,0,36.7,36.8,36.6,30.580093383789,66,13,7,3,2,1,0,4,3,5,0,8,1,4,3,1,1,2,8,3,1,1,1,2,1,2,NA,NA,NA,NA,NA,NA,NA,NA,NA,NA,1,4,1,1,3,4,1,3,1,1,2,4,2,3,4,3,3,4,1,3,4,3,3,4,4,3,1,4,3,2,2,3,2,2,4,4,4,4,4,4,1,2,2,2,4,2,4,5,3,4,5,6,3,7,5,5,6,4,4,4,5,4,2,5,4,4,1,4,2,1,2,6,2,5,5,2,2,4,4,2,3,1,4,5,5,5,4,5,5,5,5,5,2,3,4,5,6,6,4,2,4,2,3,5,1,4,5,2,5,2,2,4,2,2,2,4,3,4,1,4,1,4,3,4,5,5,2,1,1,1,1,4,4,2,3,3,3,3,3,4,2,2,4,4,4,3,3,4,4,3,4,4,2,2,2,3,3,3,4,3,4,5,4,4,4,3,3,4,3,3,4,3,3,3,3,3,4,3,3
"METU",1994,2,5,1,2,2,1,2,1,1,3,36.7,36.6,36.8,39.911697387695,72,8,3,2,2,1,NA,4,4,4,1,1,NA,2,2,1,NA,2,5,1,NA,NA,1,1,NA,1,NA,NA,NA,NA,NA,NA,NA,NA,NA,NA,4,2,2,4,3,4,1,2,1,2,4,1,3,5,5,5,3,3,4,4,5,4,4,5,5,3,5,4,4,4,4,4,4,4,4,4,4,4,4,4,4,4,3,4,4,4,4,2,6,6,7,6,7,6,6,6,6,7,7,5,6,6,6,2,4,2,2,6,4,6,5,5,5,2,2,1,2,2,5,6,6,5,3,2,2,2,2,3,2,2,1,1,6,5,5,4,4,3,3,2,3,4,4,2,4,5,5,2,4,5,3,1,2,4,1,4,8,5,5,8,6,5,4,2,5,5,2,3,2,5,1,5,4,2,3,4,4,2,4,2,3,4,5,3,4,4,4,4,2,4,4,2,4,4,4,2,1,4,3,3,3,4,4,4,4,4,2,2,4,4,4,4,2,5,5,4,4,1,5
"SMU",1994,2,4,2,3,2,1,5,0,2,NA,36.7,36.6,36.8,1.2931060791016,70,26,5,1,2,1,NA,4,4,5,NA,8,8,5,5,1,NA,2,2,1,NA,NA,1,1,NA,1,NA,NA,NA,NA,NA,NA,NA,NA,NA,NA,3,2,2,4,2,3,3,3,3,3,3,4,3,3,3,5,2,3,2,2,3,3,2,3,4,2,3,4,4,3,4,4,4,5,4,4,3,3,3,4,3,3,3,4,3,4,3,3,3,3,3,3,5,3,5,5,4,5,3,3,3,5,4,5,4,5,3,4,3,3,5,4,3,3,3,3,3,3,5,3,4,3,4,5,5,5,5,5,5,5,5,5,1,3,3,3,3,3,3,2,2,3,2,2,2,2,2,2,2,2,2,4,2,4,3,4,4,6,3,4,3,3,3,3,4,2,2,3,3,3,3,4,4,2,4,4,4,4,3,2,3,3,3,3,3,4,3,3,4,3,3,4,3,2,3,2,2,4,4,2,4,4,3,3,3,2,4,3,4,3,3,3,4,2,3,2,2,4,2
"SMU",1994,2,7,2,1,2,1,0,0,2,NA,36.7,36.7,36.7,1.2931060791016,70,27,5,1,2,1,NA,4,4,5,NA,5,4,3,2,1,NA,2,8,1,NA,NA,1,1,NA,1,NA,NA,NA,NA,NA,NA,NA,NA,NA,NA,1,1,1,5,1,5,1,1,1,1,1,1,4,5,4,5,1,1,4,5,5,4,5,3,5,5,4,5,5,2,5,5,5,2,5,5,4,2,4,5,5,1,1,1,2,5,5,5,6,6,6,2,6,6,5,6,5,2,4,6,2,6,4,6,4,6,3,6,6,6,6,6,6,6,3,6,6,6,6,6,6,6,2,5,5,4,5,5,5,5,5,5,3,7,1,2,2,2,2,4,4,1,3,4,4,4,4,4,4,2,1,4,2,5,4,4,5,1,1,1,1,4,1,2,3,2,2,4,2,2,4,4,4,1,3,4,4,3,4,4,1,1,5,5,2,1,1,2,2,1,3,4,3,4,3,4,3,1,4,1,4,4,4,2,4,1,2,2,4,1,1,1,4,4,2,2,1,2,5
"Bamberg",1994,2,7,2,2,2,1,21,0,2,NA,36.7,36.8,36.6,49.007797241211,88,10,1,1,3,1,NA,4,4,5,NA,2,2,3,1,1,NA,1,NA,1,NA,NA,1,1,NA,2,"Ergotherapie",NA,NA,NA,NA,1,NA,NA,NA,NA,2,2,2,1,5,2,1,1,4,1,1,1,1,5,5,4,4,4,4,4,5,4,4,5,4,2,5,5,4,4,5,4,4,5,4,5,4,5,5,5,5,4,2,2,2,5,5,7,7,6,6,6,6,6,5,7,3,1,4,5,5,6,5,7,3,3,3,3,3,5,3,3,6,5,2,4,3,3,2,3,3,5,3,2,2,2,2,3,3,3,2,2,7,3,3,5,6,6,5,5,5,2,5,5,4,5,5,4,5,4,2,1,2,3,1,1,2,4,3,2,4,3,1,5,2,4,2,4,2,2,3,4,5,1,2,5,5,2,3,3,2,5,2,5,3,5,4,4,3,2,3,2,2,4,2,2,2,3,3,1,3,4,3,3,4,3,2,4,4,5,4,4,3,3,5,3,2,4,3
"VCU",1994,2,7,2,2,2,1,3,0,2,NA,36.72222222,36.66666667,36.77777778,37.552200317383,82,11.11111111,5,1,2,1,NA,4,2,5,NA,5,4,5,5,2,1,2,6,3,1,1,2,1,NA,1,NA,NA,NA,NA,NA,NA,NA,NA,NA,NA,3,2,1,5,3,4,1,3,1,1,5,2,2,4,4,4,3,3,3,5,4,3,5,5,5,2,4,2,4,4,2,4,4,4,3,2,2,2,2,4,2,4,4,2,4,2,2,2,1,2,5,5,5,2,5,1,2,1,1,1,2,4,1,6,1,1,1,2,1,1,1,2,1,2,2,1,1,1,2,1,1,1,1,5,5,5,5,5,5,5,5,5,7,7,6,5,7,7,7,2,2,2,2,2,2,3,2,2,3,2,1,2,1,2,1,5,8,7,6,6,2,4,2,5,5,4,1,3,1,1,2,5,4,2,5,5,4,5,2,4,2,4,4,4,4,4,4,5,4,4,4,4,1,1,1,1,4,4,4,3,2,4,5,2,3,1,2,5,5,5,5,2,4,1,1,1,4,3,1
"VCU",1994,2,7,1,4,2,1,0,0,2,NA,36.72388889,36.67,36.77777778,37.557693481445,74,16.66666667,5,1,1,1,NA,4,4,4,1,5,3,5,3,1,NA,2,3,1,NA,NA,1,1,NA,2,"Thandavam (dance team)","VCU Bhangra (dance team)",NA,NA,NA,3,5,NA,NA,NA,3,3,3,3,2,3,2,2,2,4,4,3,4,3,3,3,3,3,3,2,3,3,3,3,4,3,3,4,5,4,4,4,4,4,5,5,4,4,4,4,4,3,3,4,4,4,4,3,5,2,3,2,5,2,2,3,2,2,2,4,2,2,2,5,2,2,2,5,2,2,2,2,2,2,2,2,1,2,2,3,2,1,2,5,5,5,5,5,5,5,5,5,3,5,5,5,5,5,5,2,4,2,3,3,2,4,2,2,2,2,2,2,2,4,2,3,3,5,3,3,2,3,2,3,3,3,3,3,2,2,2,4,2,2,3,3,3,3,4,4,2,4,4,4,4,4,3,5,4,3,4,3,1,1,1,2,2,2,2,2,2,4,3,4,2,2,2,4,4,4,3,4,3,3,3,4,3,2,3
"Tsinghua",1994,2,7,2,3,2,1,0,0,2,0,36.75,36.8,36.7,30.580093383789,60,13,7,3,2,1,0,4,4,5,0,4,1,3,3,1,1,2,2,1,1,1,2,2,1,2,"N","N","N","N","N",NA,NA,NA,NA,NA,4,5,5,3,4,4,2,4,4,5,3,4,4,2,2,2,3,2,3,3,2,3,4,1,3,2,1,2,4,2,3,1,1,1,4,3,4,2,4,3,3,2,1,1,1,2,2,2,2,2,3,4,2,2,4,2,3,2,3,6,2,2,2,2,2,4,2,5,2,2,3,4,2,5,3,2,3,2,5,6,6,3,2,4,4,4,4,4,5,3,4,4,3,2,5,6,5,2,4,1,2,2,2,2,2,2,2,2,3,2,2,2,2,3,3,3,4,4,2,3,2,2,2,5,4,4,1,2,2,3,3,4,2,2,2,2,2,2,3,4,2,1,3,4,4,3,4,4,4,3,4,4,2,2,2,3,2,3,4,3,2,2,4,4,3,2,4,3,4,2,2,4,3,2,3,4,3,3,2
"Oxford",1994,2,7,2,3,2,1,1,0,2,NA,36.75,36.6,36.9,51.75,88,-2.222222222,5,1,2,1,NA,4,4,5,NA,3,3,6,5,1,NA,2,8,1,NA,NA,1,2,8,1,NA,NA,NA,NA,NA,NA,NA,NA,NA,NA,2,1,3,3,2,2,2,3,3,3,4,2,3,3,4,3,2,2,2,2,3,2,2,3,3,2,4,3,3,2,2,1,3,4,2,4,4,4,4,3,4,1,2,1,3,2,4,3,5,5,6,5,6,3,5,5,3,5,5,3,4,4,3,6,2,3,3,4,3,3,3,4,5,5,3,3,2,3,5,3,5,4,4,5,5,5,5,5,5,5,5,5,5,4,4,5,4,5,4,4,4,1,4,4,3,3,4,2,3,3,2,3,2,5,2,4,5,4,2,2,3,4,2,5,4,4,4,3,2,2,3,5,5,2,4,5,3,4,3,4,2,3,4,4,3,4,3,3,3,3,3,2,3,1,3,3,5,4,5,2,4,2,4,4,3,3,2,4,3,2,2,4,3,3,3,3,2,2,3
"Tsinghua",1994,1,7,1,2,2,1,5,2,1,10,36.75,36.8,36.7,30.580093383789,65,16,7,3,1,1,0,4,4,5,0,2,3,2,5,1,3,2,5,1,1,3,5,1,4,1,NA,NA,NA,NA,NA,NA,NA,NA,NA,NA,3,4,4,4,2,3,4,2,4,2,2,2,4,2,4,4,2,3,4,4,4,4,1,3,4,4,3,3,2,2,2,4,5,3,1,4,1,2,2,5,3,1,3,4,3,5,2,3,5,5,2,7,3,1,6,2,6,6,3,3,4,2,6,4,5,4,2,5,4,5,4,3,1,4,5,4,2,6,6,6,3,5,4,3,2,3,4,3,2,4,1,4,7,1,5,3,5,4,1,4,1,4,4,2,3,4,4,3,1,3,2,1,2,2,2,2,1,4,6,5,3,3,1,5,5,4,1,2,2,3,3,4,2,1,3,3,3,3,3,3,3,3,3,4,2,2,4,2,4,2,4,2,1,5,4,2,3,4,3,4,2,1,4,2,2,3,2,4,3,2,3,2,3,3,2,4,5,3,2
"Tsinghua",1994,2,7,2,2,2,1,1,1,2,0,36.75,36.7,36.8,30.580093383789,71,16,7,3,2,1,0,4,2,5,0,5,1,8,8,1,1,2,5,2,1,1,3,2,1,2,"õÌÈ­µÀfþ",NA,NA,NA,NA,6,NA,NA,NA,NA,2,1,3,3,4,4,2,2,3,2,3,2,2,3,3,4,3,3,3,3,4,3,3,4,4,3,3,3,4,2,4,3,2,3,2,4,4,4,3,4,2,2,2,2,2,4,4,5,5,5,6,6,5,4,3,5,5,5,5,5,4,5,6,5,4,4,2,5,3,4,3,5,3,3,2,2,5,2,5,3,4,2,4,2,2,2,4,3,3,4,3,4,5,3,3,6,7,5,6,2,4,2,4,3,4,4,2,4,4,3,3,4,2,2,2,4,5,4,2,3,3,3,3,3,4,4,2,3,2,2,2,4,2,2,4,4,3,2,4,3,4,2,4,4,4,3,4,4,3,2,4,3,2,3,2,3,4,4,2,3,3,4,4,2,4,4,3,4,3,4,3,2,2,3,4,2,4,4,4
"Tsinghua",1994,1,7,1,3,2,1,13,0,2,0,36.75,36.8,36.7,30.580093383789,86,19,7,3,2,1,0,4,2,5,0,4,1,4,3,1,1,2,8,1,1,1,1,2,1,2,NA,NA,NA,NA,NA,NA,NA,NA,NA,NA,2,5,2,2,3,4,1,1,1,2,2,2,2,4,4,4,4,4,2,3,4,2,4,3,5,4,4,3,3,2,4,4,2,2,4,4,5,4,4,4,3,2,2,1,2,2,2,5,5,4,5,4,4,4,5,5,3,5,5,3,3,3,3,6,3,6,3,5,4,4,5,5,3,4,2,3,2,3,4,3,6,3,4,3,3,2,2,2,2,3,2,3,2,2,4,1,1,1,1,2,3,1,2,2,2,3,2,2,2,1,3,2,1,2,2,4,4,4,2,2,3,3,2,4,4,4,2,4,2,3,4,4,4,2,5,4,2,3,4,4,2,3,5,4,3,3,2,4,2,4,4,4,2,3,2,4,3,4,2,4,1,4,4,4,3,2,3,4,4,2,2,3,4,3,2,3,2,5,2
"Tsinghua",1994,1,1,2,4,2,1,1,0,1,9,36.75,36.4,37.1,30.580093383789,87,17,7,3,2,1,0,4,4,5,0,6,3,5,1,1,1,2,1,2,1,1,1,1,2,2,"na","na","na","na","na",0,0,0,0,0,4,2,3,2,2,4,3,3,3,2,4,3,2,4,3,3,3,2,3,2,3,3,3,4,4,2,4,4,4,1,2,4,2,5,5,5,4,4,2,1,2,3,4,4,4,3,4,3,5,4,4,4,2,2,4,5,4,4,2,2,3,4,6,4,4,3,2,5,5,4,6,4,3,3,4,3,5,4,7,4,4,2,2,2,4,3,3,3,3,4,2,2,7,2,2,4,4,3,4,1,4,2,4,4,3,3,3,2,3,4,2,3,3,3,4,2,3,4,5,4,5,3,2,2,4,3,4,3,4,4,3,2,4,2,4,2,4,2,4,2,4,2,4,2,4,4,3,2,4,4,4,2,4,3,3,4,3,3,3,4,3,4,3,3,3,4,5,1,4,4,4,3,4,4,1,4,5,3,1
"Tsinghua",1994,2,7,1,2,2,1,3,0,2,0,36.75,36.8,36.7,30.580093383789,71,14,7,3,2,1,0,4,4,5,0,1,0,3,3,1,1,2,8,1,1,8,1,2,1,1,"ÇàÄê´«Ã½ÖÐÐÄ",NA,NA,NA,NA,NA,NA,NA,NA,NA,3,3,3,4,4,3,2,3,2,2,3,2,4,4,2,4,3,1,2,3,1,2,3,2,4,3,4,4,4,3,4,4,3,4,4,4,4,4,4,4,3,4,3,3,4,4,4,5,2,2,2,4,2,2,2,2,4,3,2,4,2,2,2,2,2,2,2,2,2,2,2,2,2,2,4,2,5,2,5,3,3,2,4,3,3,3,4,4,3,4,3,4,3,2,2,6,6,6,6,3,2,2,2,2,4,2,2,2,4,2,2,3,2,2,2,2,2,4,3,3,3,3,2,2,4,4,2,4,2,2,2,4,3,4,3,4,3,3,3,4,3,3,3,3,4,3,3,4,3,3,4,3,2,2,2,4,3,4,2,2,2,3,3,3,3,3,2,4,4,3,3,2,2,2,2,3,4,3,3
"Poland",1994,2,7,1,3,2,1,62,2,1,8,36.75,36.7,36.8,52.166702270508,55,-3,9,1,2,1,NA,4,4,2,2,4,3,4,3,1,NA,2,8,2,1,1,1,1,NA,1,NA,NA,NA,NA,NA,NA,NA,NA,NA,NA,2,1,1,3,3,5,1,1,1,3,5,2,5,2,3,3,4,4,4,4,3,4,3,3,5,5,2,5,5,4,5,3,2,5,4,4,4,4,4,2,4,2,4,3,2,3,4,4,5,5,2,7,5,4,2,4,2,3,6,4,2,2,7,5,5,5,2,6,1,3,2,2,2,2,3,1,4,4,3,6,7,1,5,5,3,3,4,3,4,3,4,4,3,3,1,3,1,3,2,1,2,3,1,2,2,2,1,2,1,2,2,2,3,3,2,4,4,2,2,2,1,2,4,4,4,4,1,3,2,3,3,5,3,2,3,2,2,3,5,4,2,4,3,1,5,5,3,4,3,4,4,3,1,4,2,2,3,5,2,2,1,3,4,5,2,2,1,2,3,4,3,5,3,5,5,4,3,2,5
"Kassel",1994,2,7,1,5,2,1,4,0,2,NA,36.795,36.87,36.72,51.335494995117,73,-4,1,1,2,1,NA,4,4,5,NA,4,2,7,6,1,NA,2,8,3,1,7,4,1,NA,2,"Sportverein Kampfsport","-","-","-","-",4,NA,NA,NA,NA,4,4,5,5,5,5,2,4,4,4,5,4,4,2,3,3,2,2,2,2,2,3,2,4,5,1,2,1,3,2,4,1,2,1,1,3,2,3,2,2,1,1,2,1,1,1,2,3,2,2,2,4,2,2,2,2,3,5,1,2,2,5,2,2,1,2,3,6,2,2,2,2,3,2,2,2,2,2,2,7,7,2,4,5,5,4,4,5,4,3,5,4,5,3,6,6,3,2,3,2,2,1,2,2,2,2,1,1,1,2,4,1,1,2,1,4,6,5,5,4,5,5,1,3,1,5,4,5,1,2,5,2,2,1,1,2,4,1,4,2,4,5,3,4,5,5,3,4,4,4,4,4,2,1,3,3,2,4,5,2,2,3,4,4,2,2,1,4,4,4,3,3,1,5,4,4,4,5,2
"Poland",1994,2,6,1,4,2,1,29,0,1,10,36.8,36.7,36.9,NA,78,8,9,1,2,1,NA,3,3,5,1,3,3,5,7,1,NA,2,6,3,1,8,1,1,NA,1,NA,NA,NA,NA,NA,NA,NA,NA,NA,NA,5,3,4,2,5,5,4,4,4,3,5,5,2,2,3,3,4,4,4,4,2,3,4,4,4,4,2,4,1,1,1,3,3,1,1,3,2,2,2,2,2,1,1,1,1,2,2,2,2,1,2,1,5,2,1,2,2,6,1,2,1,2,6,2,1,5,4,6,2,5,2,5,4,4,2,2,5,4,5,6,6,6,4,3,3,4,3,2,2,2,2,3,3,2,2,1,2,2,2,1,1,2,2,2,2,2,2,2,2,4,3,1,1,3,2,5,5,4,2,2,4,3,5,3,1,5,4,5,3,2,2,4,2,1,2,3,4,1,4,5,1,3,4,4,4,4,3,2,2,3,3,2,2,2,3,2,4,3,2,4,2,2,2,5,1,2,2,2,4,4,2,4,4,2,3,4,2,2,1
"METU",1994,2,5,1,3,2,1,12,0,1,10,36.8,36.7,36.9,39.911697387695,64,6,3,2,4,1,NA,4,4,4,1,2,2,4,3,1,NA,2,8,1,NA,NA,1,1,NA,2,"e?lence gruplar?",NA,NA,NA,NA,6,NA,NA,NA,NA,3,4,5,4,3,2,3,3,2,2,3,2,3,3,4,3,2,3,2,3,3,2,3,4,4,3,2,2,3,3,3,2,3,2,1,4,4,4,1,4,2,1,1,2,2,1,1,3,2,2,2,5,2,2,2,2,2,5,1,2,2,1,3,1,1,1,3,3,2,2,2,2,2,2,3,4,3,2,3,2,3,2,2,5,2,5,4,2,4,2,2,4,3,5,5,5,4,3,4,2,5,3,3,2,4,5,4,2,4,4,1,2,2,2,2,5,4,6,2,4,2,1,2,2,4,4,1,4,4,3,2,5,3,1,2,3,4,3,3,4,4,3,5,4,3,4,4,5,3,3,4,3,2,2,3,4,4,4,5,3,1,2,2,4,3,1,2,4,4,2,3,5,2,5,4,4,4,2,1
"Tsinghua",1994,2,7,1,2,2,1,1.5,0.5,2,0,36.8,36.8,36.8,30.580093383789,64,12,7,3,1,1,0,4,4,5,0,3,3,3,2,1,1,2,8,1,1,1,1,2,1,1,NA,NA,NA,NA,NA,NA,NA,NA,NA,NA,3,3,2,4,4,4,2,2,2,3,4,3,2,4,3,3,3,3,3,3,4,3,3,3,4,2,3,2,2,2,2,2,3,3,3,4,2,2,2,2,2,2,2,2,2,2,2,3,2,2,3,5,3,2,4,2,3,3,3,5,2,2,3,3,2,3,3,4,3,3,3,2,3,3,3,3,3,3,2,3,4,4,3,4,4,4,4,4,3,4,4,4,3,2,4,5,5,4,4,2,3,2,2,3,3,2,3,4,3,2,2,4,2,2,2,2,3,4,2,3,2,3,2,4,5,3,1,3,4,4,3,5,2,1,4,4,3,3,2,4,3,4,4,4,4,3,4,3,3,3,4,3,4,3,4,3,2,2,4,3,2,4,3,2,4,4,2,4,4,3,3,4,4,4,3,4,3,1,4
"Oxford",1994,2,6,2,4,2,1,0,0,2,NA,36.8,36.8,36.8,51.75,86,0,5,1,2,1,NA,4,4,5,NA,4,4,4,4,1,NA,2,8,1,NA,NA,3,2,3,1,NA,NA,NA,NA,NA,NA,NA,NA,NA,NA,4,4,3,4,3,4,4,3,4,4,3,3,3,4,3,3,2,2,2,3,3,2,3,3,4,2,3,4,4,2,2,4,2,4,4,2,4,4,4,4,2,1,1,2,4,1,4,5,5,3,5,4,5,3,5,5,3,5,3,3,4,5,3,5,3,5,3,3,3,4,3,3,3,3,5,4,5,4,3,3,4,5,3,4,4,4,4,4,2,2,4,3,4,5,3,2,4,4,4,4,4,1,4,4,1,4,4,3,1,2,2,2,3,4,4,2,2,3,2,1,2,2,4,2,4,4,2,2,2,2,4,4,2,4,3,2,2,3,3,2,2,4,4,3,4,3,4,3,4,3,3,4,3,3,3,4,4,4,4,3,2,3,4,4,4,3,4,3,4,3,3,4,2,4,3,4,3,2,4
"Zurich",1994,2,7,1,2,2,1,0,1,2,NA,36.8,36.5,37.1,NA,65,3,1,1,2,1,NA,4,2,4,1,3,1,4,3,1,NA,2,6,3,8,1,5,1,NA,1,NA,NA,NA,NA,NA,NA,NA,NA,NA,NA,2,1,2,3,1,2,2,2,2,4,3,1,3,3,4,4,3,4,2,3,3,3,3,4,3,2,2,3,4,2,4,3,2,4,3,4,2,3,2,4,3,2,3,4,2,2,2,5,4,3,4,4,4,5,6,4,2,3,2,5,5,5,2,5,2,3,2,3,1,2,2,4,2,5,2,2,2,2,2,3,2,1,2,4,2,4,3,3,4,2,4,4,4,6,5,6,5,4,4,2,2,1,2,2,1,3,2,2,1,2,1,2,1,3,1,5,8,6,3,6,5,5,4,5,3,4,2,2,5,2,2,4,5,1,4,3,3,3,4,3,2,2,4,5,2,5,3,4,2,2,4,3,2,2,3,4,4,4,3,3,2,4,4,2,4,3,2,3,4,2,4,4,4,4,3,3,3,1,3
"Kassel",1994,2,7,1,2,2,1,12,1,2,NA,36.8,36.9,36.7,51.450897216797,75,-3,1,1,2,1,NA,4,4,4,2,2,4,6,8,2,1,2,8,1,NA,NA,1,1,NA,2,"Sportverein","/","/","/","/",5,0,0,0,0,4,2,5,3,4,2,3,4,4,4,5,1,5,4,4,5,3,3,4,3,2,4,2,4,4,1,2,4,5,2,4,4,1,4,1,4,4,5,4,5,5,4,4,4,3,2,5,7,7,6,5,7,7,5,3,6,6,1,4,5,5,2,7,2,5,1,2,4,3,2,1,3,3,3,2,3,2,3,1,5,6,4,3,4,4,4,5,4,4,2,4,4,4,1,3,3,3,4,4,2,2,1,2,3,2,4,3,1,3,4,1,1,3,3,1,5,4,4,4,4,5,1,1,1,2,5,3,5,4,2,2,2,2,1,1,3,4,1,4,3,2,3,4,5,4,4,4,3,3,4,2,2,2,2,2,1,3,4,3,1,1,4,4,2,3,1,1,4,4,4,3,2,2,2,4,3,4,1,3
"Oslo",1994,2,7,1,3,2,1,1,0,2,NA,36.8,36.6,37,59.912704467773,96,-6,4,1,2,1,NA,4,4,4,1,5,5,8,6,1,NA,2,8,3,1,3,1,1,NA,1,NA,NA,NA,NA,NA,NA,NA,NA,NA,NA,2,4,4,3,3,4,2,3,3,3,4,4,4,3,3,2,3,3,3,3,3,2,2,3,5,2,3,2,3,3,2,4,3,4,3,5,3,2,4,4,1,2,3,4,1,3,4,7,5,4,6,7,3,6,5,3,1,4,1,3,2,4,5,5,1,2,2,4,2,3,1,1,2,2,2,1,2,3,1,4,2,1,1,5,4,4,4,5,4,3,4,3,3,7,7,7,6,4,4,4,4,3,4,3,3,4,3,2,4,1,2,2,2,3,3,5,6,7,1,5,1,1,5,5,1,5,2,4,5,5,5,5,4,1,3,4,4,2,3,3,3,3,4,3,5,5,4,3,3,5,3,3,2,2,2,3,2,4,4,1,3,2,3,2,4,3,1,4,4,4,4,4,2,4,4,3,3,2,4
"Tsinghua",1994,1,7,2,3,2,1,2,0,2,0,36.8,36.7,36.9,30.580093383789,74,16,7,3,2,1,0,4,4,5,0,8,1,8,5,1,1,2,5,1,1,1,2,2,1,2,NA,NA,NA,NA,NA,NA,NA,NA,NA,NA,2,2,2,2,4,3,1,2,1,2,2,2,1,4,4,4,4,3,4,3,3,3,4,3,3,3,4,3,4,1,4,4,4,3,4,3,3,2,2,3,2,2,2,2,2,2,2,6,7,5,6,6,6,6,6,4,5,4,2,4,5,6,6,7,4,6,1,2,3,2,1,2,2,2,1,3,1,2,3,2,3,1,4,5,5,4,5,5,5,5,4,4,5,3,4,7,6,6,5,3,4,2,4,2,3,3,4,3,2,3,4,4,2,4,2,4,2,4,2,2,2,2,3,4,4,4,2,3,4,3,4,4,2,1,2,3,4,2,2,3,2,2,2,4,2,3,2,3,4,3,4,4,4,2,2,2,2,3,3,2,3,4,4,2,3,2,2,4,2,4,3,2,2,2,4,2,2,2,4
"VCU",1994,2,1,2,4,2,1,1,0,2,NA,36.80555556,36.66666667,36.94444444,37.552200317383,81,14.44444444,5,1,2,1,NA,4,2,5,NA,7,3,6,3,1,NA,2,8,3,1,5,3,2,1,2,"Health Science Club",NA,NA,NA,NA,3,NA,NA,NA,NA,3,2,4,3,2,3,2,2,2,3,4,2,2,2,3,3,3,3,3,2,2,2,2,2,3,2,2,4,4,4,4,4,4,4,5,4,4,3,4,3,3,2,1,2,3,4,3,5,5,5,5,5,5,7,3,6,4,3,4,3,2,2,5,5,2,3,6,2,3,2,3,2,2,5,2,3,4,4,2,3,2,2,4,5,5,5,5,5,5,5,5,5,4,5,4,4,5,5,5,4,3,1,3,2,1,1,4,1,4,2,3,4,2,3,2,4,3,6,3,4,4,4,1,2,1,5,5,5,5,3,5,2,1,2,1,2,5,2,5,3,3,4,4,1,4,5,4,5,5,5,5,5,2,4,2,4,5,4,4,2,2,3,3,2,2,2,2,2,4,3,2,3,2,4,1,3,2,4,4
"UCSB",1994,1,6,2,5,2,1,4,0,2,NA,36.83333333,36.77777778,36.88888889,34.4329071,82,12.22222222,5,1,2,1,NA,4,4,5,NA,8,3,5,3,1,NA,2,8,1,NA,NA,1,1,NA,2,"choir","photography club",NA,NA,NA,2,5,NA,NA,NA,4,5,4,5,3,4,4,3,2,5,4,4,5,2,3,2,4,2,2,2,2,1,2,3,4,2,2,4,4,4,4,4,3,4,4,5,5,5,5,3,4,4,4,4,4,3,4,2,2,2,4,4,2,4,3,2,2,2,4,6,2,3,3,1,2,4,2,4,2,3,2,2,2,2,2,3,5,2,3,3,4,2,4,5,5,5,5,5,4,4,4,4,4,6,6,6,5,5,5,3,2,1,3,2,3,2,3,2,2,2,2,2,2,3,1,2,2,4,2,3,2,2,2,4,4,4,2,4,4,5,4,5,2,2,3,4,2,2,2,3,3,3,4,3,5,3,3,4,4,4,5,4,3,3,3,4,3,4,2,4,2,2,3,4,3,3,2,5,4,4,4,5,2,5,3,5,4,3,3
"SMU",1994,2,6,2,2,2,1,0,0,2,NA,36.83333333,36.88888889,36.77777778,1.2931060791016,70,26,5,1,2,1,NA,4,4,5,NA,8,3,4,2,2,1,2,8,1,NA,NA,1,1,NA,2,"ASMU",NA,NA,NA,NA,7,NA,NA,NA,NA,3,4,2,1,3,4,1,3,2,4,4,1,3,4,3,4,2,3,4,1,4,3,3,4,5,2,5,4,5,3,5,5,3,5,3,4,3,4,3,4,3,3,4,3,3,4,5,4,6,4,5,6,6,5,5,5,4,6,5,3,3,7,5,6,3,6,5,2,4,5,4,3,4,3,3,3,3,3,5,2,3,5,5,4,3,4,5,5,5,5,5,5,6,7,6,6,6,5,5,1,4,2,4,4,3,4,5,4,4,4,3,4,2,4,4,2,2,2,2,2,2,3,1,5,4,2,1,4,3,1,4,5,4,2,4,4,4,3,5,4,2,2,5,5,2,4,4,4,2,1,2,2,2,4,3,3,2,2,2,4,4,3,3,4,2,5,3,4,5,2,2,5,2,3,4,4,2,1,5
"Oslo",1994,2,6,2,3,2,1,6,1,2,NA,36.85,36.8,36.9,59.912704467773,90,-1,4,1,2,1,NA,4,4,5,NA,8,5,8,5,1,NA,2,8,3,1,5,3,1,NA,1,NA,NA,NA,NA,NA,NA,NA,NA,NA,NA,2,4,5,5,4,4,2,3,3,4,4,4,3,2,2,2,2,2,2,2,2,2,2,2,3,2,2,2,2,1,3,2,2,2,2,4,4,2,3,3,2,2,2,2,2,2,2,4,4,4,4,4,4,4,4,4,4,4,4,4,2,4,4,3,4,4,4,5,4,4,4,4,4,4,4,4,4,4,4,4,4,4,4,4,4,4,4,4,4,3,4,4,3,4,4,4,4,3,2,1,1,1,2,1,1,1,1,1,1,1,3,3,2,4,2,3,5,4,1,3,4,2,4,4,3,4,2,2,3,2,4,4,4,2,3,4,3,3,3,4,3,2,3,4,4,3,4,3,3,4,3,4,3,3,3,2,4,3,3,3,2,4,2,2,3,2,2,4,4,2,2,4,2,4,4,3,3,3,3
"SMU",1994,2,7,2,3,2,1,0,0,2,NA,36.85,36.9,36.8,1.2931060791016,70,27,5,1,2,1,NA,4,4,5,NA,2,1,3,3,1,NA,2,5,1,NA,NA,1,1,NA,1,NA,NA,NA,NA,NA,NA,NA,NA,NA,NA,4,4,3,4,3,5,2,2,3,3,3,4,4,3,4,3,3,3,2,3,3,3,3,3,5,3,3,2,4,1,4,4,2,2,2,1,5,2,5,4,2,2,2,2,4,2,2,4,2,2,4,3,2,4,4,3,2,5,4,4,2,2,2,4,2,3,4,4,4,4,2,4,5,5,3,4,4,3,5,3,6,3,3,4,4,4,4,4,5,5,5,5,5,4,4,4,4,4,4,2,3,2,3,3,2,2,3,4,2,2,2,2,2,3,2,5,6,7,6,6,1,1,2,2,4,4,3,2,5,5,5,4,4,2,4,3,3,4,4,2,1,2,4,3,3,4,3,4,4,3,3,3,3,3,3,4,2,4,4,3,4,3,3,2,2,2,3,5,5,1,1,2,4,4,3,5,2,1,5
"VCU",1994,2,5,1,4,2,1,0,0,2,NA,36.85,36.9,36.8,37.557693481445,80,15,5,1,1,1,NA,4,4,4,2,2,2,3,3,2,1,2,8,3,8,6,3,1,NA,1,NA,NA,NA,NA,NA,NA,NA,NA,NA,NA,4,3,4,5,4,3,3,3,4,2,4,5,5,3,2,2,3,2,2,3,2,3,3,2,4,3,2,3,4,2,3,2,1,4,1,4,3,4,3,3,2,2,2,4,3,4,2,6,2,1,1,4,2,1,5,4,2,2,5,1,2,3,1,4,1,1,2,3,2,1,2,1,2,2,2,2,2,2,2,1,3,1,2,4,4,4,5,5,3,2,1,2,4,5,5,4,3,4,4,2,2,2,2,2,2,2,2,2,3,1,3,1,1,3,1,4,4,5,4,4,4,1,2,2,1,5,4,5,3,2,5,3,4,1,2,4,4,1,2,4,2,2,4,4,3,4,3,4,4,2,2,2,4,4,3,4,5,5,5,3,1,3,2,4,3,2,1,2,4,2,1,4,2,4,2,4,4,2,2
"METU",1994,2,6,1,4,2,1,NA,NA,2,NA,36.85,36.8,36.9,39.911697387695,70,3,3,2,2,1,NA,4,4,4,2,5,3,3,3,1,NA,2,5,1,NA,NA,1,1,NA,1,NA,NA,NA,NA,NA,NA,NA,NA,NA,NA,4,4,3,5,3,4,2,2,2,3,4,4,4,2,4,3,2,2,2,2,3,2,2,4,3,3,2,4,3,3,2,4,3,4,2,3,5,5,5,5,5,2,2,3,4,3,4,6,5,3,5,7,5,6,5,5,5,5,4,2,2,2,6,6,2,3,2,6,4,2,4,5,4,4,1,1,2,1,3,5,5,1,2,5,5,5,5,5,5,5,5,5,6,7,7,7,7,7,7,2,2,3,2,2,2,2,3,2,2,2,2,2,2,3,2,5,6,6,3,6,3,4,2,2,4,4,2,4,4,3,3,4,4,1,3,4,4,3,2,4,4,4,4,4,4,5,5,5,5,4,5,5,2,2,2,2,4,4,4,2,3,3,4,4,4,5,3,4,4,4,5,5,2,5,5,4,4,2,3
"Poland",1994,2,5,2,2,2,1,4,0,1,1,36.85,37.1,36.6,52.25,48,8,9,1,2,1,NA,3,3,5,1,4,5,4,3,1,NA,2,8,2,2,1,3,1,NA,1,NA,NA,NA,NA,NA,NA,NA,NA,NA,NA,3,4,3,3,2,2,2,3,4,2,5,4,4,4,5,5,5,3,3,3,4,3,4,5,5,5,3,2,4,4,4,4,4,4,1,4,4,4,4,4,4,2,2,1,1,1,4,3,3,5,5,2,2,2,3,6,3,3,5,5,4,5,2,5,4,4,4,6,5,4,2,5,5,2,3,3,6,2,3,4,5,6,4,5,5,5,5,4,5,5,5,5,5,3,4,3,3,2,4,1,2,4,2,4,2,4,3,2,3,1,2,3,2,2,4,5,8,3,6,4,3,4,1,3,4,4,1,5,1,2,4,4,4,2,3,4,4,4,5,5,4,4,4,3,4,4,3,4,4,3,4,4,4,4,2,2,5,5,3,1,1,4,2,4,3,1,1,4,4,4,3,4,2,5,5,5,5,4,5
"Tsinghua",1994,1,7,2,3,2,1,0,0,1,1,36.85,36.9,36.8,30.580093383789,87,17,7,3,2,1,0,4,1,5,0,7,1,2,2,1,1,2,8,1,1,1,1,2,1,1,"¼ÇÕßÍÅ","Çà´«",NA,NA,NA,4,2,0,0,0,4,4,2,2,4,4,1,3,2,4,5,3,2,1,2,1,2,2,2,2,2,2,2,1,4,2,1,4,3,2,3,4,2,4,5,5,4,2,2,2,3,2,2,2,2,2,2,5,1,2,2,5,5,1,2,2,1,1,1,3,1,1,5,3,3,4,2,5,2,1,5,5,1,2,2,1,5,2,3,1,5,5,1,4,4,5,4,5,4,2,3,4,1,1,5,3,3,2,2,2,2,1,2,3,2,1,2,4,2,1,2,1,1,4,1,3,2,4,1,2,2,2,1,5,4,4,1,5,1,4,5,5,2,1,2,2,2,1,4,3,1,3,4,5,3,5,3,3,4,5,5,5,2,1,2,4,3,4,4,4,2,5,5,5,5,1,1,5,5,2,1,4,2,4,4,4,5,2,1
"Oxford",1994,2,7,1,2,2,2,0,4,1,20,36.9,36.8,37,51.75,86,0,5,1,2,1,NA,4,2,5,NA,4,4,8,4,1,NA,2,5,3,1,5,1,1,NA,1,NA,NA,NA,NA,NA,NA,NA,NA,NA,NA,4,3,3,1,1,5,1,2,4,4,4,3,2,3,4,5,2,3,4,3,5,3,4,3,5,4,4,1,4,2,4,1,1,4,2,4,2,2,2,2,2,1,1,2,2,2,2,2,3,2,2,2,2,2,2,6,2,4,2,2,3,6,2,7,2,7,6,6,5,6,7,7,2,3,5,4,5,3,6,5,6,2,4,1,1,1,2,1,1,1,1,4,7,1,1,7,7,7,2,2,2,3,2,2,2,2,2,3,5,2,3,5,2,2,2,3,4,3,2,1,2,3,1,2,4,4,5,1,5,2,2,2,4,2,5,2,2,1,2,1,4,4,5,5,2,4,4,4,1,3,2,1,4,5,4,2,1,5,1,5,5,2,5,5,2,2,4,3,4,4,2,2,5,2,2,2,3,1,4
"Kassel",1994,2,7,1,3,2,1,0,0,2,NA,36.9,36.8,37,50.017593383789,60,-2,1,1,2,1,NA,4,2,4,1,2,2,4,3,2,1,2,8,3,1,3,1,2,1,1,NA,NA,NA,NA,NA,NA,NA,NA,NA,NA,4,4,4,3,2,3,4,4,3,3,4,3,3,4,3,4,3,3,3,3,3,3,3,3,4,2,3,2,4,2,4,4,2,3,2,4,4,3,4,4,2,2,2,2,2,2,2,5,6,6,7,7,5,2,5,6,5,2,6,2,5,4,6,3,1,3,2,5,2,2,2,1,3,3,3,2,2,3,1,4,1,3,4,4,3,4,4,3,2,3,3,2,4,3,3,3,2,2,2,4,4,1,4,2,2,4,4,2,3,2,2,2,2,3,2,5,6,6,5,5,2,2,2,4,2,5,2,3,2,2,4,4,3,1,2,4,4,1,3,3,3,4,3,4,3,5,4,4,3,2,3,3,2,2,2,2,4,2,3,2,1,3,3,4,2,2,3,3,4,4,4,3,2,3,4,2,3,4,2
"VCU",1994,2,7,2,4,2,1,0,0,2,NA,36.91944444,36.87777778,36.96111111,37.553802490234,91,14.44444444,5,1,2,1,NA,4,4,5,NA,3,2,3,3,2,1,2,1,3,1,3,1,2,1,1,NA,NA,NA,NA,NA,NA,NA,NA,NA,NA,4,4,4,5,5,2,4,3,4,5,5,4,5,3,3,3,2,2,2,3,3,3,2,3,3,1,3,1,3,2,1,1,1,3,3,1,4,1,4,2,4,1,1,1,1,1,3,4,4,4,4,4,4,4,4,4,4,4,4,4,4,4,4,4,4,4,4,4,4,4,4,4,4,4,4,4,4,4,4,4,4,4,4,4,3,5,5,5,4,3,4,3,2,4,5,4,5,4,5,2,4,1,5,2,2,3,4,4,2,2,2,3,3,3,2,4,6,4,5,5,1,1,3,3,4,3,1,4,3,3,4,4,3,2,1,4,4,3,4,3,3,2,4,4,4,4,4,3,3,3,3,3,3,3,3,4,4,4,3,3,2,4,4,2,4,4,2,3,4,3,3,3,2,4,4,3,3,2,4
"UCSB",1994,1,4,2,4,2,1,8,0,2,NA,36.94444444,36.94444444,36.94444444,34.4329071,83,13.33333333,5,1,2,1,NA,4,4,3,1,3,1,8,7,1,NA,2,5,1,NA,NA,2,1,NA,1,NA,NA,NA,NA,NA,NA,NA,NA,NA,NA,4,5,5,2,3,3,4,4,4,4,5,4,2,3,2,3,2,3,2,1,2,4,2,2,3,5,2,2,3,2,2,3,2,4,3,3,3,2,4,1,4,3,4,2,4,2,2,2,5,4,3,3,4,4,4,3,5,5,4,3,4,3,2,3,4,3,5,3,3,5,4,4,4,6,3,3,3,3,5,3,3,5,3,4,4,4,3,4,3,4,4,4,5,4,3,4,5,4,3,2,2,2,1,2,2,3,1,1,2,2,4,2,2,3,4,5,7,6,7,3,3,4,2,4,4,3,1,1,4,4,2,5,5,5,5,5,2,2,2,4,5,5,3,2,4,5,5,5,5,5,4,4,3,2,3,2,4,3,4,2,3,3,3,3,2,4,4,4,2,2,2,4,2,3,3,2,4,3,3
"SMU",1994,2,7,1,4,2,1,0,0,1,3,36.94444444,36.83333333,37.05555556,1.2931060791016,71,26,5,1,2,1,NA,4,4,5,NA,8,6,6,6,1,NA,2,8,1,NA,NA,1,1,NA,1,NA,NA,NA,NA,NA,NA,NA,NA,NA,NA,3,3,2,4,3,3,1,2,2,1,4,2,4,3,3,3,2,2,1,3,3,2,2,2,5,1,2,4,3,2,4,4,2,4,3,4,4,4,4,4,4,2,2,2,2,3,4,3,2,2,3,3,2,2,2,2,2,2,2,2,2,2,2,2,2,2,1,2,2,2,2,2,2,2,1,2,1,2,2,2,2,2,2,4,4,4,4,5,4,4,5,5,3,4,4,3,4,4,4,2,2,3,2,2,2,2,4,2,2,3,2,2,2,2,3,3,4,5,2,2,4,4,2,4,5,3,1,3,2,2,2,4,3,2,2,4,4,3,3,3,2,3,2,3,4,4,3,5,4,3,4,4,1,2,1,2,3,3,4,2,3,3,3,4,4,2,2,4,2,2,2,4,2,4,2,3,3,2,3
"Tsinghua",1994,2,7,2,3,2,1,0,0,2,0,36.95,36.9,37,30.580093383789,65,16,7,3,2,1,0,4,4,5,0,8,2,8,2,1,1,2,1,3,8,2,1,2,1,2,NA,NA,NA,NA,NA,NA,NA,NA,NA,NA,4,2,3,4,3,4,1,4,2,3,5,2,4,3,2,2,2,2,1,1,3,2,2,3,4,2,2,2,2,2,4,3,3,2,4,4,4,4,4,4,2,2,4,2,2,1,4,6,2,2,2,6,2,5,5,3,1,1,2,6,2,1,4,6,2,2,2,5,2,2,2,2,2,1,2,2,3,2,2,1,5,2,2,5,5,5,5,5,5,4,5,5,4,2,3,5,5,5,5,2,2,2,1,3,2,4,2,2,2,2,2,2,1,4,1,3,3,3,2,2,2,3,2,3,4,4,1,1,1,1,1,4,1,1,4,4,2,2,1,4,2,2,4,4,4,2,2,4,5,3,4,5,3,1,3,3,4,4,4,4,2,4,3,4,3,2,5,4,4,2,3,4,4,5,4,4,3,2,4
"Tsinghua",1994,2,7,2,3,2,1,0,0,2,0,36.95,37.1,36.8,30.580093383789,61,10,7,3,2,1,0,4,2,5,0,8,1,6,3,1,1,2,2,1,1,1,1,2,1,2,NA,NA,NA,NA,NA,NA,NA,NA,NA,NA,4,3,3,3,5,5,1,3,4,3,4,3,2,4,4,4,4,4,3,4,3,4,4,2,4,3,3,3,3,2,4,4,2,2,4,3,2,1,3,1,1,1,1,1,2,2,2,5,4,3,4,4,5,6,3,5,6,4,5,5,5,2,5,5,2,5,3,3,2,2,3,2,2,3,3,3,5,2,3,4,3,2,4,4,5,5,5,5,4,4,4,4,7,2,4,4,3,3,4,2,3,4,3,2,4,4,2,2,3,2,2,3,1,3,3,3,3,4,2,3,2,2,2,4,4,4,2,2,2,2,4,3,2,2,2,4,4,2,3,4,2,2,3,4,4,3,3,5,4,3,4,3,2,2,2,3,4,4,4,3,2,3,4,4,4,2,2,4,2,2,2,4,4,3,4,2,3,3,2
"Tsinghua",1994,2,7,2,1,2,1,0,0,2,0,36.95,37.3,36.6,30.580093383789,82,17,7,3,2,1,0,4,3,5,0,1,0,5,5,1,1,2,3,1,1,1,6,2,1,2,"°à¼¶","Ë«Ñ§Î»°à¼¶",NA,NA,NA,NA,NA,0,0,0,4,3,3,3,4,4,2,3,2,4,4,4,4,3,4,4,4,3,3,4,1,4,3,4,4,3,3,4,4,4,4,2,3,3,4,4,4,4,3,4,3,4,4,4,2,3,4,5,3,3,4,5,3,4,4,4,4,4,4,4,4,4,3,5,4,4,3,5,4,3,4,5,4,4,4,3,5,3,5,4,5,4,4,4,4,4,4,4,3,4,3,4,4,2,2,6,5,4,4,3,4,4,3,3,3,3,2,3,4,3,2,3,2,4,2,3,3,4,5,5,3,3,2,2,4,4,2,4,3,2,4,4,3,1,2,4,4,2,5,4,2,2,3,3,3,2,2,4,4,3,4,4,3,3,2,3,2,4,4,4,2,3,4,4,3,2,2,4,3,4,4,3,3,3,4,4,4,3,3
"UCSB",1994,2,7,1,3,2,1,2,0,2,NA,36.97222222,37.22222222,36.72222222,34.16479492,71,11.11111111,5,1,2,1,NA,4,4,5,NA,4,2,4,4,1,NA,2,1,3,1,8,1,1,NA,1,NA,NA,NA,NA,NA,NA,NA,NA,NA,NA,5,2,2,5,3,5,3,3,5,2,3,5,5,3,2,5,2,3,2,2,3,1,3,2,4,2,3,4,5,4,4,2,2,3,3,4,4,4,4,4,2,1,1,1,4,2,4,6,2,1,2,4,1,1,1,1,1,1,2,2,4,1,2,1,2,2,1,2,1,2,1,3,1,1,3,1,1,2,1,4,2,1,1,5,5,5,5,5,5,3,5,5,6,7,7,7,7,7,7,3,2,1,2,2,2,2,2,4,2,2,2,2,2,3,4,3,4,4,3,4,1,4,1,1,1,5,3,4,4,2,2,3,2,2,2,2,2,1,1,4,3,3,5,2,4,4,4,4,4,4,4,4,2,2,2,4,4,4,3,3,2,3,4,2,4,2,2,2,4,2,2,2,2,2,4,2,4,2,4
"Tsinghua",1994,2,7,2,2,2,1,3,3,2,0,36.975,36.95,37,30.580093383789,74,16,7,3,2,1,0,4,1,5,0,4,1,6,1,1,1,2,2,2,1,3,1,2,1,2,"ÀÏÊ¦","Í¬Ñ§",NA,NA,NA,1,2,NA,NA,NA,1,5,4,3,3,2,3,3,3,3,2,3,3,3,3,3,3,2,3,3,3,3,3,3,4,3,3,4,5,2,4,3,4,5,4,4,4,4,4,5,2,4,2,2,3,3,4,4,3,3,3,3,4,4,5,3,2,3,3,3,2,3,4,6,1,5,1,4,3,2,4,5,2,5,3,5,6,3,5,5,6,3,6,1,3,3,2,2,3,3,3,3,4,4,2,3,3,3,4,3,1,4,2,4,2,4,2,2,2,3,2,3,2,2,2,3,3,4,3,3,1,1,4,2,3,4,4,2,2,2,2,3,2,2,2,2,4,2,2,4,2,2,2,4,4,3,3,4,2,4,4,3,2,3,2,2,2,4,3,3,2,4,2,4,4,2,2,4,4,2,2,3,3,2,4,3,4,1,4
"Bamberg",1994,2,6,1,3,2,1,1,0,2,NA,37,37,37,49.440307617188,62,5,1,1,1,1,NA,4,2,4,1,4,3,4,3,1,NA,2,8,3,8,8,2,1,NA,1,NA,NA,NA,NA,NA,NA,NA,NA,NA,NA,4,3,2,4,4,4,1,1,2,4,3,3,3,2,3,3,3,2,2,3,3,2,3,3,4,3,2,1,1,1,1,1,1,1,1,1,3,1,1,1,1,1,1,1,1,1,1,1,1,1,4,1,3,1,4,1,2,7,2,2,2,1,4,1,1,1,1,2,2,1,1,1,2,7,1,1,1,1,1,3,2,1,3,4,4,4,4,4,4,4,4,4,6,5,5,3,5,5,5,1,2,1,3,4,1,3,2,1,1,3,3,3,2,2,2,3,3,5,2,2,4,2,4,4,1,5,5,5,1,1,4,2,1,1,1,3,5,1,4,3,2,3,1,2,4,5,5,5,3,3,3,2,1,2,2,2,2,2,1,2,3,1,2,1,1,3,1,3,3,3,3,3,5,3,4,4,3,5,2
"Tsinghua",1994,2,7,2,4,2,1,0,0,2,0,37,36.8,37.2,30.666702270508,86,16,7,3,2,1,0,4,2,5,0,3,3,3,3,1,1,2,3,3,1,1,1,2,1,2,NA,NA,NA,NA,NA,0,0,0,0,0,4,4,3,3,4,2,1,2,2,3,2,1,3,2,5,2,4,3,4,3,3,5,3,3,4,2,3,2,3,3,2,1,2,2,2,4,4,2,2,2,2,2,2,1,2,3,2,5,5,2,3,4,7,4,1,4,3,3,5,4,5,2,4,6,2,3,2,1,4,2,3,6,4,4,3,1,1,1,6,2,1,2,5,5,4,4,3,5,5,4,4,4,7,2,4,4,7,6,5,4,2,3,4,5,3,1,4,3,4,5,3,4,2,2,2,2,2,5,3,3,3,2,2,4,4,5,2,2,2,3,3,4,2,2,2,3,3,1,4,4,2,4,5,5,2,2,1,3,4,2,4,4,4,2,2,2,5,4,3,2,2,3,4,4,4,2,3,4,3,2,2,2,2,3,3,3,4,2,4
"Serbia",1994,2,6,1,4,2,1,2,0,1,15,37,37.1,36.9,44.818603515625,50,8,6,1,2,1,NA,4,4,4,1,5,8,6,8,1,NA,2,8,1,NA,NA,3,2,3,2,"Nurdor",NA,NA,NA,NA,2,NA,NA,NA,NA,4,3,4,4,4,4,3,2,4,4,2,3,4,3,3,4,3,2,2,2,3,2,2,4,4,2,3,1,4,2,3,2,2,3,1,3,3,3,4,2,2,1,2,2,2,3,4,5,3,3,2,5,3,5,5,5,2,4,2,3,2,2,2,5,2,4,NA,8,NA,3,2,3,3,NA,NA,NA,3,NA,4,6,3,NA,3,5,5,5,5,5,5,3,4,4,5,5,5,5,5,5,6,3,2,2,2,2,2,2,2,2,2,2,2,3,2,2,3,3,5,5,2,3,6,1,2,2,2,4,3,4,4,4,4,4,3,2,4,4,4,3,4,4,4,4,4,3,4,4,2,2,2,1,3,4,2,3,3,1,1,4,2,3,2,2,2,4,4,4,2,4,4,4,4,4,4,4,3,4,3,2,4
"SMU",1994,2,4,2,3,2,1,0,0,2,NA,37,37.7,36.3,1.2931060791016,70,27,5,1,2,1,NA,4,4,5,NA,8,3,6,2,1,NA,2,8,1,NA,NA,1,1,NA,1,NA,NA,NA,NA,NA,NA,NA,NA,NA,NA,3,3,3,3,3,3,3,2,3,3,3,3,3,3,3,3,3,3,3,3,3,3,3,3,3,3,3,3,3,3,3,3,3,3,3,3,4,4,3,3,3,3,3,3,3,4,3,4,4,4,4,4,4,4,4,4,4,4,4,4,4,4,4,4,4,4,4,4,4,4,4,4,4,4,4,4,4,4,4,4,4,4,4,4,4,4,4,4,4,4,4,4,4,7,7,7,7,5,5,4,4,3,4,4,4,4,4,4,4,3,2,2,2,4,2,3,6,6,3,6,4,2,2,4,4,2,1,2,4,4,4,4,2,2,5,4,4,5,2,3,1,1,5,5,3,3,3,4,4,2,4,4,2,2,3,2,1,4,4,4,2,4,4,4,4,2,4,3,4,1,2,2,2,3,3,3,2,1,5
"VCU",1994,2,1,1,4,2,1,0,0,2,NA,37,37,37,38.434799194336,86,7.222222222,5,1,2,1,NA,4,4,4,4,8,3,3,3,2,2,2,8,3,1,8,3,1,NA,1,NA,NA,NA,NA,NA,NA,NA,NA,NA,NA,1,4,5,4,5,5,3,4,5,5,5,5,5,3,3,3,3,3,2,2,3,3,2,3,3,3,3,3,3,3,3,3,3,3,3,3,3,3,3,3,3,3,3,3,3,3,3,1,4,4,4,4,4,4,4,4,4,4,4,4,4,4,4,4,4,4,4,4,4,4,4,4,4,4,4,4,4,4,4,4,4,4,4,5,5,5,5,5,5,5,4,5,4,4,4,4,4,4,4,3,3,3,3,3,3,3,3,3,3,3,3,3,3,3,3,5,7,6,5,5,5,1,4,2,2,5,2,2,5,5,5,4,2,1,3,3,3,3,4,1,4,3,3,3,3,5,2,5,5,3,5,5,2,2,3,3,5,5,2,1,2,4,5,3,4,4,3,4,4,5,3,4,4,4,3,3,3,3,3
"Serbia",1994,2,7,1,4,2,1,2,0,2,NA,37,37.2,36.8,44.818603515625,95,6,6,1,2,1,NA,4,4,5,NA,6,4,7,6,1,NA,2,6,1,NA,NA,2,1,NA,2,"Udruzenje studenata",NA,NA,NA,NA,3,NA,NA,NA,NA,2,2,1,3,4,3,1,1,3,3,1,1,2,3,4,4,3,3,2,4,4,2,2,4,5,1,2,3,5,3,5,2,1,5,2,5,4,5,5,5,5,2,4,4,3,3,4,7,8,2,7,7,8,7,5,6,2,6,7,2,2,5,5,7,1,2,1,4,1,3,2,5,3,3,NA,NA,1,NA,1,6,6,NA,4,5,3,5,5,4,4,1,4,4,5,6,4,4,6,5,5,1,1,1,2,3,2,2,1,1,2,2,2,1,1,3,1,3,2,3,1,2,2,3,2,5,4,3,1,2,2,5,4,5,5,5,2,2,4,4,4,5,3,5,3,4,3,3,1,2,4,4,4,3,3,2,1,5,4,5,2,2,2,2,4,5,3,1,1,5,5,2,1,5,2,4,5,4,1,1,2
"Tsinghua",1994,2,6,2,2,2,1,0,0,2,0,37,37,37,30.580093383789,60,13,7,3,2,1,0,4,4,5,0,7,3,5,5,1,1,2,8,1,1,1,1,2,1,2,NA,NA,NA,NA,NA,NA,NA,NA,NA,NA,4,4,2,3,5,3,2,4,4,3,5,4,3,2,3,3,2,2,2,3,2,3,3,2,4,2,3,3,4,3,4,4,4,3,4,4,4,4,4,4,4,1,2,1,3,2,2,6,2,3,5,5,2,2,5,5,2,3,4,4,2,2,5,5,2,2,3,3,3,2,5,5,2,3,2,3,4,2,5,2,3,2,4,4,4,4,4,4,5,5,4,4,4,2,4,5,3,4,3,2,2,1,3,2,2,4,2,3,2,2,2,1,2,2,2,4,6,4,4,5,4,5,2,4,4,4,2,4,4,3,4,4,2,2,2,4,3,2,3,4,2,2,4,4,4,2,2,4,4,2,4,4,3,2,2,4,4,4,4,3,2,4,4,4,3,2,2,4,4,3,2,2,1,2,4,4,3,2,4
"Tsinghua",1994,2,5,1,3,2,1,1,0,2,0,37,37,37,39.928894042969,22,8,7,3,2,1,0,2,2,5,0,5,3,5,2,1,1,2,4,1,1,1,1,2,1,2,NA,NA,NA,NA,NA,NA,NA,NA,NA,NA,4,3,4,4,3,4,2,4,2,4,4,3,2,3,3,3,2,2,2,3,4,3,3,3,4,2,3,4,4,4,4,4,4,3,4,3,4,3,4,3,4,2,3,2,3,2,3,5,4,3,4,5,5,3,4,2,3,4,3,3,3,3,4,5,3,3,2,3,3,3,3,3,3,3,2,3,3,3,3,3,3,2,2,5,5,5,4,5,5,5,4,5,6,2,4,4,5,5,5,2,2,2,3,2,2,2,2,3,2,3,2,3,2,3,2,4,6,4,4,4,5,6,2,4,4,4,2,3,3,3,3,4,2,2,4,4,2,3,4,2,2,2,4,4,4,4,4,4,4,3,4,4,2,2,2,2,3,3,3,3,2,4,2,4,4,4,2,4,4,4,3,4,2,4,4,4,3,2,4
"Serbia",1994,2,7,1,4,2,1,2,0,1,12,37.05,37.1,37,44.870803833008,95,11,6,1,2,1,NA,4,4,4,1,6,3,7,4,1,NA,2,8,1,NA,NA,1,2,4,1,NA,NA,NA,NA,NA,NA,NA,NA,NA,NA,2,2,3,3,5,4,1,1,2,1,2,5,3,4,2,4,3,2,3,3,5,2,2,1,5,4,3,4,2,1,4,2,2,5,1,5,5,4,5,4,3,1,2,2,2,3,5,1,1,1,1,5,5,3,1,1,2,NA,1,1,1,2,1,5,1,3,1,3,1,2,1,1,1,1,1,1,3,3,1,NA,3,1,NA,4,4,4,5,3,3,2,4,3,3,4,5,3,2,2,5,2,3,1,2,1,1,1,2,4,1,2,2,1,1,5,1,4,2,4,1,2,1,3,2,2,4,4,3,5,1,1,3,3,2,4,2,2,4,2,5,5,4,5,3,5,5,2,1,3,3,2,1,4,3,3,2,4,5,4,4,3,2,1,1,4,3,1,1,4,5,2,2,4,2,5,3,4,4,1,3
"Tsinghua",1994,2,7,1,2,2,1,0,0,2,0,37.1,37.1,37.1,30.580093383789,78,17,7,3,2,1,0,2,2,5,0,8,8,6,6,1,1,2,8,3,1,8,1,2,1,1,"ÀúÊ·ÎÄ»¯Ñ§ÔºÑ§Éú»á","Ãñ×åÎÄ»¯Óë¾«ÉñÑÐ¾¿Ð­»á",NA,NA,NA,3,3,NA,NA,NA,4,3,4,4,3,5,1,2,3,3,4,2,4,3,2,3,2,3,2,2,2,1,4,2,4,2,1,3,3,2,3,1,2,2,3,3,3,2,3,2,3,2,3,2,2,2,2,2,2,3,6,4,4,3,4,4,4,4,4,4,5,2,2,5,3,5,3,4,3,5,3,3,3,2,4,3,4,2,3,2,3,3,4,4,4,4,3,5,5,5,4,3,2,2,2,5,6,5,4,2,3,2,4,2,3,3,3,2,2,2,2,3,2,3,2,4,4,4,2,2,2,3,2,2,4,4,2,2,2,2,4,4,2,2,2,4,4,2,1,4,2,3,4,4,4,4,4,4,3,3,4,3,2,2,2,4,4,4,4,4,2,2,3,4,4,4,2,4,2,4,4,4,2,4,4,4,4,4,4
"Tsinghua",1994,2,7,2,3,2,1,0,0,2,0,37.1,37.1,37.1,30.580093383789,65,16,7,3,2,1,0,4,4,5,0,6,4,6,4,1,1,2,6,1,1,1,1,2,1,2,NA,NA,NA,NA,NA,NA,NA,NA,NA,NA,4,3,4,4,4,4,2,3,2,4,4,3,2,2,3,3,2,2,2,3,2,2,3,2,4,2,1,3,4,2,4,2,2,4,3,4,4,4,4,3,2,2,3,3,2,2,2,4,4,3,3,4,2,3,3,3,3,3,3,5,3,3,3,3,3,3,3,4,3,4,3,3,3,3,3,3,5,3,3,3,4,3,4,4,4,4,5,4,5,4,4,5,5,2,4,5,6,5,4,2,2,3,2,2,4,2,2,2,2,3,2,2,2,2,1,4,4,7,5,6,2,2,2,4,4,4,2,2,2,2,3,4,2,2,2,3,3,2,4,4,4,4,3,4,4,3,2,4,3,3,4,4,2,2,3,2,4,4,2,3,2,4,3,4,4,2,2,4,4,3,3,4,3,4,4,3,4,2,4
"Tsinghua",1994,2,6,1,3,2,1,1,0,2,0,37.1,37,37.2,30.666702270508,70,14,7,3,4,1,0,4,2,5,0,4,3,5,4,1,1,1,2,1,1,2,1,2,1,2,NA,NA,NA,NA,NA,NA,NA,NA,NA,NA,2,5,4,3,4,2,1,1,3,4,3,4,4,3,4,4,5,5,2,3,3,3,4,3,4,4,3,4,4,2,4,4,5,3,4,4,5,5,5,5,4,2,4,3,2,5,4,6,3,5,6,6,6,5,5,3,2,4,5,5,6,5,6,3,2,2,3,2,5,2,4,4,5,2,2,4,3,2,5,2,2,4,3,4,5,3,4,4,5,5,5,5,5,2,4,2,4,5,4,2,2,2,2,4,3,3,2,4,2,4,4,4,4,4,2,3,3,7,2,3,1,1,2,4,4,3,1,1,1,3,5,4,3,1,2,4,4,2,2,3,4,3,3,4,4,3,4,3,4,3,3,3,3,2,3,2,4,3,3,2,2,4,3,4,4,4,3,4,5,4,4,5,2,3,4,3,3,3,2
"Zurich",1994,2,6,1,2,2,1,4,0,2,NA,37.135,37.19,37.08,47.423599243164,71,8,1,1,2,1,NA,2,2,4,4,4,1,5,5,2,1,2,8,1,NA,NA,1,1,NA,1,NA,NA,NA,NA,NA,NA,NA,NA,NA,NA,5,2,4,3,2,3,3,4,4,4,5,3,2,3,5,5,3,2,3,2,4,3,2,5,4,3,3,3,4,4,4,2,2,3,3,4,5,4,4,4,2,1,1,3,4,4,2,6,7,7,5,7,7,5,6,6,7,2,7,3,6,5,7,5,7,5,2,5,2,5,3,4,4,4,1,3,3,5,3,6,5,3,6,4,4,4,4,4,5,5,4,4,6,5,6,5,5,5,6,1,2,4,3,2,4,2,4,2,2,4,2,2,1,3,1,5,8,6,6,6,5,4,5,2,2,5,4,4,3,3,3,2,3,1,2,3,3,2,4,4,4,4,3,3,3,5,5,3,4,3,3,4,3,2,3,4,3,4,5,3,2,4,4,3,4,4,2,4,4,3,3,4,3,4,4,3,5,4,4
"SMU",1994,1,6,1,2,2,1,8,0,2,NA,37.15,37.3,37,1.2931060791016,70,27,5,1,2,1,NA,4,4,5,NA,3,2,6,6,2,2,2,8,1,NA,NA,4,1,NA,1,NA,NA,NA,NA,NA,NA,NA,NA,NA,NA,2,2,2,2,2,2,2,2,2,2,4,4,4,2,4,5,2,2,2,2,4,2,3,4,4,2,4,2,5,2,5,4,4,4,2,4,4,2,2,4,2,2,4,2,4,2,2,5,2,3,5,4,5,5,3,5,2,5,2,3,3,5,5,5,3,3,2,4,3,2,2,2,2,2,2,2,2,2,3,4,2,2,2,4,4,4,2,2,3,3,3,3,3,6,6,6,6,5,6,2,2,1,4,2,3,4,2,2,2,2,2,2,2,2,2,4,4,6,4,4,4,4,2,4,4,2,2,2,4,2,4,5,3,2,4,4,4,4,4,4,2,2,4,2,4,4,2,4,3,4,4,4,2,2,2,2,2,4,2,2,2,4,4,4,4,2,2,4,4,4,2,2,4,4,4,2,2,2,4
"Serbia",1994,2,6,1,2,2,1,2,0,2,NA,37.2,37.2,37.2,44.818603515625,44,12,6,1,2,1,NA,4,4,5,NA,3,1,5,5,1,NA,2,8,1,NA,NA,1,2,4,1,NA,NA,NA,NA,NA,NA,NA,NA,NA,NA,3,1,1,4,2,1,1,1,3,1,1,2,3,3,4,4,3,4,3,3,5,3,3,5,5,3,3,3,3,4,4,5,2,3,1,4,4,4,4,4,3,2,3,2,2,1,4,1,1,3,1,1,2,3,1,7,5,1,2,1,1,3,8,1,1,4,6,7,5,5,3,2,7,5,5,5,7,7,2,7,7,3,4,4,4,4,4,4,4,2,2,2,3,3,3,1,3,3,2,4,5,5,5,4,4,5,5,4,5,4,2,2,2,2,1,2,7,5,7,6,6,4,2,4,3,3,1,4,1,2,4,4,5,3,3,3,4,3,4,3,3,3,3,3,3,3,4,3,3,3,4,4,2,3,3,2,2,2,2,4,3,3,4,2,4,3,1,1,5,2,1,4,3,4,4,2,3,1,5
"VCU",1994,2,7,1,4,2,1,1,0,2,NA,37.22222222,37.22222222,37.22222222,37.553802490234,94,13.33333333,5,1,2,1,NA,4,4,5,NA,3,2,3,3,2,1,2,3,1,NA,NA,1,1,NA,1,NA,NA,NA,NA,NA,NA,NA,NA,NA,NA,3,2,2,4,2,3,5,3,2,3,4,4,4,3,3,4,3,2,3,2,4,2,2,4,4,2,2,2,4,2,4,4,4,4,4,4,4,4,4,4,2,2,2,4,2,2,2,4,4,3,3,3,6,4,5,4,2,3,3,6,5,3,2,6,2,2,2,3,2,2,3,2,2,3,3,3,1,2,5,5,2,1,2,5,4,4,5,5,3,3,4,3,2,3,3,2,2,2,3,4,4,1,4,3,4,2,4,4,1,2,3,2,2,2,2,4,3,4,3,3,3,3,2,2,2,4,4,4,2,2,4,4,1,1,1,2,4,2,1,2,2,2,4,2,4,5,3,4,4,4,2,2,4,2,2,4,5,3,2,2,2,4,4,4,4,2,2,2,4,4,2,4,3,4,4,4,4,2,4
"SMU",1994,2,5,2,3,2,1,1,0,2,NA,37.35,36.9,37.8,1.2931060791016,71,26,5,1,2,1,NA,4,2,5,NA,4,3,4,3,2,1,2,6,1,NA,NA,2,1,NA,1,NA,NA,NA,NA,NA,NA,NA,NA,NA,NA,4,3,4,4,4,4,2,2,3,3,4,3,4,3,3,3,2,2,3,3,3,2,3,3,4,2,3,2,2,2,2,2,2,2,2,2,4,4,4,3,4,2,2,2,3,3,4,4,3,4,5,6,6,4,5,3,5,3,3,3,3,6,4,4,5,5,4,5,4,3,5,4,4,4,5,5,5,4,4,5,5,3,5,4,4,4,4,4,5,4,4,4,3,5,5,5,5,5,5,3,2,2,2,3,2,3,2,2,2,2,3,3,2,3,3,3,3,5,2,3,2,2,2,2,4,3,2,3,3,2,3,4,3,2,4,3,2,4,2,3,2,3,4,4,4,4,3,3,4,3,4,4,3,2,3,2,2,4,4,3,2,4,3,4,3,4,2,4,4,2,2,2,3,2,2,3,3,2,4
"SMU",1994,2,7,2,3,1,2,0,0,2,NA,39.3,39.3,39.3,1.2931060791016,70,26,5,1,2,1,NA,4,3,5,NA,4,3,6,3,1,NA,2,4,1,NA,NA,3,1,NA,1,NA,NA,NA,NA,NA,NA,NA,NA,NA,NA,2,2,3,1,1,3,3,3,2,2,2,2,1,3,3,4,3,3,4,4,3,4,4,3,2,4,4,2,2,3,3,3,2,2,2,3,4,4,4,4,4,4,4,4,4,3,4,4,4,3,3,3,3,2,3,3,3,6,3,4,3,3,3,2,3,7,5,7,5,3,4,4,2,4,5,5,5,4,5,5,5,5,5,4,5,5,5,5,5,4,5,5,3,4,3,3,3,3,4,5,5,4,3,4,4,5,5,5,3,3,2,4,2,3,1,1,2,1,2,2,2,2,3,4,4,1,1,3,4,4,3,4,4,4,5,4,3,5,2,3,4,4,5,5,4,5,3,4,4,5,4,4,4,4,5,1,1,3,4,4,2,3,4,4,1,1,4,4,4,3,3,3,3,3,2,3,4,1,4
"METU",1995,1,5,2,3,2,1,NA,NA,1,20,35.05,34.2,35.9,39.911697387695,66,5,3,2,2,1,NA,4,4,5,NA,8,3,8,8,1,NA,2,4,1,NA,NA,1,1,NA,1,NA,NA,NA,NA,NA,NA,NA,NA,NA,NA,2,2,3,2,1,3,1,1,1,1,3,2,2,5,4,3,4,4,3,3,4,3,3,4,5,3,3,2,4,2,3,2,2,2,4,3,3,4,4,4,4,3,3,4,3,3,3,4,4,3,4,5,4,3,5,2,3,7,4,3,5,3,6,4,3,3,3,3,3,2,2,4,3,3,2,2,4,3,3,2,2,2,3,5,4,4,4,4,4,4,3,3,6,7,7,7,7,6,6,2,4,2,4,1,3,4,4,2,4,2,2,3,4,4,2,5,4,2,2,3,3,3,2,2,4,4,3,2,3,2,2,4,4,2,4,4,3,4,2,4,4,4,3,2,4,3,3,4,4,4,4,4,2,3,4,3,3,2,2,3,4,4,2,4,4,2,3,4,3,3,3,4,2,2,2,4,3,3,2
"Oxford",1995,1,7,1,4,2,1,12,0,2,NA,35.1,34,36.2,51.75,89,-1.666666667,5,1,1,1,NA,4,4,4,4,2,2,5,5,1,NA,2,8,2,1,6,1,1,NA,1,NA,NA,NA,NA,NA,NA,NA,NA,NA,NA,4,2,3,3,2,4,2,4,1,3,5,4,4,3,3,4,1,2,1,2,2,3,3,3,4,2,2,1,4,1,4,1,1,1,1,4,3,4,2,4,1,1,1,3,3,1,1,1,1,1,1,1,1,1,1,1,1,1,1,1,7,1,3,1,1,2,2,2,2,2,1,1,1,1,1,2,2,1,2,3,1,1,2,1,1,4,1,1,1,1,1,1,7,7,7,7,7,6,6,4,1,1,2,4,1,4,1,1,2,1,1,2,1,1,1,5,6,5,4,3,1,1,4,5,4,4,1,4,4,4,4,5,2,1,4,4,2,2,1,2,2,4,2,2,4,5,4,5,1,4,5,1,1,5,3,3,2,2,4,2,2,3,2,5,2,2,2,4,4,5,5,5,2,5,4,4,2,1,5
"Oxford",1995,1,7,1,4,2,1,2,2,2,NA,35.1,34.1,36.1,51.75,86,0,5,1,2,1,NA,4,4,5,NA,2,1,8,6,1,NA,2,8,1,NA,NA,1,1,NA,1,NA,NA,NA,NA,NA,NA,NA,NA,NA,NA,4,4,5,2,1,2,2,3,1,4,5,4,3,3,3,3,2,2,2,2,2,2,2,2,5,1,2,4,4,2,4,2,2,4,3,4,3,4,5,4,4,2,2,2,4,2,4,5,5,5,4,2,5,5,2,4,2,4,2,5,3,3,2,6,2,2,2,3,3,2,2,2,2,1,3,2,3,2,2,3,3,2,3,4,4,4,4,4,4,2,4,3,7,6,6,6,6,5,6,4,2,2,2,4,2,4,4,2,3,2,3,3,2,2,2,5,7,6,6,4,7,6,4,4,4,5,4,2,4,4,2,4,2,2,4,4,2,2,2,4,4,4,3,3,3,5,4,5,4,4,4,4,1,1,1,3,2,4,2,4,4,1,3,2,1,3,2,4,2,4,4,2,3,4,4,4,2,3,3
"METU",1995,1,7,1,5,2,1,17,0,2,NA,35.2,34.6,35.8,39.911697387695,64,6,3,2,2,1,NA,4,4,4,1,8,6,6,6,1,NA,2,8,1,NA,NA,1,1,NA,1,NA,NA,NA,NA,NA,NA,NA,NA,NA,NA,4,4,2,3,3,4,4,2,3,4,4,3,3,2,2,2,2,2,1,2,2,2,1,4,3,2,1,3,3,2,4,3,3,3,1,2,4,4,4,4,4,2,2,1,2,2,4,6,2,2,1,6,4,2,2,2,1,2,2,2,1,2,6,1,1,1,1,2,1,1,2,1,1,1,1,2,2,1,1,1,1,1,2,5,4,5,5,5,5,5,5,5,7,7,6,7,6,5,5,1,2,1,2,1,1,3,1,3,1,2,2,1,3,2,2,5,8,6,6,6,6,7,2,3,3,4,4,4,5,5,4,3,3,3,2,3,3,2,3,4,4,4,4,4,3,5,5,5,4,3,5,4,2,2,3,2,5,4,4,3,3,4,3,4,4,3,2,3,2,4,5,4,4,3,2,3,3,3,1
"METU",1995,1,4,1,3,2,1,NA,0,2,NA,35.2,34.9,35.5,39.911697387695,56,4,3,2,2,1,NA,4,4,4,4,3,2,4,3,1,NA,2,6,1,NA,NA,1,1,NA,1,NA,NA,NA,NA,NA,NA,NA,NA,NA,NA,3,4,5,5,2,4,2,4,4,4,5,2,4,3,2,3,3,3,3,3,3,3,3,3,4,3,3,4,4,4,4,4,3,2,1,3,2,3,1,3,2,3,1,2,1,2,3,5,2,2,4,3,4,4,6,4,5,4,2,4,3,5,5,2,2,6,6,4,6,5,5,6,4,4,3,2,7,2,5,3,2,2,3,4,4,4,4,4,5,5,4,4,3,5,5,4,3,3,3,2,4,1,3,3,2,3,4,4,2,2,2,2,3,2,2,2,3,4,1,2,3,2,3,3,4,4,4,4,2,2,4,3,2,4,2,3,4,1,4,5,3,4,4,3,4,4,3,4,4,2,3,3,3,2,3,2,2,3,1,4,3,3,3,4,4,2,2,3,2,5,5,4,2,5,3,3,3,1,3
"Oxford",1995,1,7,1,3,2,1,0.5,1,2,NA,35.2,34.3,36.1,51.75,74,2.777777778,5,1,2,1,NA,4,4,5,NA,3,1,7,7,1,NA,2,8,1,NA,NA,1,1,NA,1,NA,NA,NA,NA,NA,NA,NA,NA,NA,NA,2,1,2,2,2,3,1,2,2,2,3,1,4,2,3,4,2,3,3,3,4,3,4,2,5,3,4,4,5,2,4,4,2,4,4,5,5,4,4,5,4,2,2,3,2,2,3,2,4,3,4,4,5,4,4,4,4,3,2,4,3,5,2,6,1,5,2,4,3,2,3,3,2,3,2,3,3,2,2,4,4,3,3,5,4,4,5,5,4,4,5,3,3,4,4,4,2,2,3,2,2,2,1,1,2,2,1,3,2,1,1,1,1,2,2,3,2,2,1,1,4,1,4,4,5,3,2,2,3,3,2,5,4,2,5,5,3,3,4,4,3,3,4,4,4,3,4,3,3,4,2,2,4,3,4,2,2,4,4,2,2,3,4,2,4,2,2,4,3,2,2,3,2,4,4,3,3,2,2
"VCU",1995,2,1,2,2,2,1,0,0,2,NA,35.22222222,35.55555556,34.88888889,37.553802490234,80,15,5,1,2,1,NA,4,2,5,NA,1,NA,2,2,2,3,2,1,3,1,4,1,2,5,2,"MSA","U2H",NA,NA,NA,3,4,NA,NA,NA,4,3,2,5,5,3,1,4,3,1,4,5,4,4,5,4,3,3,3,2,5,3,3,5,5,2,5,2,4,1,3,4,4,3,3,2,5,5,4,5,5,3,1,2,3,4,4,2,1,1,1,1,2,1,1,6,2,7,1,1,1,1,2,4,1,4,4,3,3,2,2,1,2,4,5,4,4,3,2,2,4,2,4,4,5,5,5,5,5,3,5,5,5,5,4,2,4,4,3,4,5,5,4,4,4,4,5,2,5,4,3,4,3,2,3,4,4,6,2,4,4,4,2,3,3,3,2,4,1,2,5,5,3,2,4,4,2,2,2,1,1,1,4,4,3,1,2,3,3,1,2,2,3,2,3,2,3,3,4,2,1,5,4,4,4,1,2,2,4,2,2,2,4,3,4,3,2,2,3
"Oslo",1995,2,7,2,4,2,1,0,26,2,NA,35.25,35.1,35.4,59.916702270508,81,-4,4,1,2,1,NA,4,2,5,NA,4,2,8,8,2,8,2,6,1,NA,NA,1,1,NA,1,NA,NA,NA,NA,NA,NA,NA,NA,NA,NA,4,4,5,5,4,4,3,4,4,4,4,4,2,1,2,3,2,2,2,2,2,1,2,1,4,2,2,3,3,1,2,3,2,2,1,4,4,4,2,2,2,2,2,2,2,2,2,4,4,4,6,4,4,4,5,4,4,5,4,2,1,2,4,2,4,4,4,5,2,3,5,3,4,4,4,4,4,4,2,4,4,4,4,5,5,4,5,4,2,2,4,4,5,3,3,3,4,4,4,2,4,1,3,1,2,2,2,4,2,1,4,2,2,3,2,3,2,1,1,1,2,1,4,2,4,4,4,2,2,2,2,2,2,2,3,1,1,4,1,3,2,2,2,1,4,2,3,3,4,4,3,4,3,1,3,2,4,2,2,4,2,2,2,4,2,2,2,4,4,2,3,3,2,2,2,2,2,3,1
"SMU",1995,2,7,1,3,2,1,2,0,2,NA,35.4,35.4,35.4,1.2931060791016,70,26,5,1,2,1,NA,4,4,5,NA,8,4,8,8,2,4,2,8,1,NA,NA,3,1,NA,1,NA,NA,NA,NA,NA,NA,NA,NA,NA,NA,4,2,4,4,4,4,3,3,3,2,4,2,3,4,4,4,3,3,3,2,4,3,3,4,3,2,3,4,4,3,4,4,4,4,5,4,4,4,4,4,4,4,4,4,4,4,3,5,5,5,5,6,5,4,5,5,6,6,6,3,3,5,6,4,3,4,3,5,2,4,6,4,2,2,2,2,2,3,4,2,2,4,3,4,4,4,4,4,4,4,4,4,7,6,6,5,6,5,6,4,3,2,2,4,4,4,4,3,4,4,2,2,2,4,3,1,6,5,4,2,2,3,4,4,4,4,2,3,3,4,3,5,2,3,4,4,4,3,3,3,3,4,4,5,4,4,4,5,5,3,4,4,3,3,4,2,1,4,4,1,3,4,5,3,4,4,2,4,4,4,4,5,1,5,5,4,4,3,4
"Serbia",1995,1,3,2,3,2,1,4,0,2,NA,35.5,35.2,35.8,44,42,7,6,1,2,1,NA,4,4,5,NA,3,1,3,3,1,NA,2,8,1,NA,NA,1,1,NA,1,NA,NA,NA,NA,NA,NA,NA,NA,NA,NA,2,2,2,5,2,2,1,2,2,2,2,2,3,4,2,3,3,3,3,3,3,3,4,4,4,3,2,2,4,1,4,1,3,2,1,3,2,4,3,3,1,3,2,2,2,2,3,2,1,2,4,4,4,2,5,6,3,NA,2,2,1,3,1,3,1,3,4,5,4,3,2,3,5,5,3,4,5,4,4,5,6,3,4,4,4,4,5,5,3,3,3,3,5,3,4,4,3,4,4,4,4,1,4,2,3,4,4,1,3,2,2,2,2,2,2,3,4,5,1,4,4,4,3,3,4,4,2,2,3,3,3,4,2,1,1,3,5,4,3,3,3,3,3,3,4,4,1,1,1,3,4,3,3,2,2,1,2,3,1,5,3,1,1,5,2,1,4,3,2,1,3,3,4,3,1,3,2,3,1
"VCU",1995,2,6,2,4,2,1,3,0,2,NA,35.52777778,35.33333333,35.72222222,37.552200317383,81,14.44444444,5,1,2,1,NA,4,4,5,NA,2,2,5,5,2,1,2,8,1,NA,NA,1,2,1,2,NA,NA,NA,NA,NA,NA,NA,NA,NA,NA,3,3,3,3,3,3,3,3,3,3,3,3,3,4,3,4,2,3,2,2,2,3,2,3,4,3,3,3,3,4,2,4,2,4,2,3,2,3,2,4,2,2,2,2,2,3,3,5,5,5,4,4,5,6,6,3,6,2,5,5,5,5,4,4,5,5,3,5,2,4,3,5,4,3,3,5,2,3,5,2,4,3,2,4,4,4,4,4,4,4,4,4,7,5,5,5,5,5,5,4,3,2,2,4,2,4,2,2,4,2,3,2,3,4,4,3,2,4,3,2,2,2,4,4,5,5,5,5,5,5,5,2,2,2,2,2,2,2,2,2,2,2,4,4,4,4,4,4,4,3,4,3,2,2,2,2,5,4,4,2,4,4,4,2,4,1,1,4,4,4,2,2,4,4,2,2,5,1,1
"Oxford",1995,1,1,2,4,2,1,0,0,2,NA,35.55,34.7,36.4,51.75,89,-1.666666667,5,1,2,1,NA,4,4,5,NA,2,1,5,5,1,NA,2,8,1,NA,NA,8,1,NA,2,"Rowing Club","Rugby Club",NA,NA,NA,7,7,NA,NA,NA,3,5,5,5,2,3,4,3,3,5,5,5,4,2,2,3,2,2,2,2,2,2,2,2,4,2,2,3,3,2,3,2,2,2,3,2,4,4,2,4,3,1,2,1,2,1,3,1,1,1,2,2,1,1,2,6,2,2,2,4,1,2,1,3,2,5,5,4,4,3,4,3,3,1,3,6,5,4,3,4,5,3,3,4,4,4,4,4,2,2,3,3,1,2,3,2,2,2,2,2,3,1,3,2,1,1,2,1,2,1,2,3,4,5,4,3,3,3,2,2,4,4,2,4,4,4,4,4,3,4,3,2,4,2,3,2,2,2,2,3,4,2,4,1,5,3,3,4,4,4,3,3,2,2,3,2,4,4,4,4,4,2,3,4,2,2,2,4,2,2,2,4,3,2,2,2,3,2,1
"Oxford",1995,1,6,1,4,2,1,6,0,2,NA,35.55,34.6,36.5,51.75,89,-1.666666667,5,1,2,1,NA,4,4,5,NA,3,1,7,6,2,2,2,7,3,1,4,1,1,NA,1,NA,NA,NA,NA,NA,NA,NA,NA,NA,NA,4,3,3,4,2,4,1,4,1,3,3,3,3,3,4,5,2,3,3,2,4,2,4,4,5,2,5,3,4,1,4,4,5,2,1,2,4,4,2,4,1,2,1,1,4,1,4,2,2,4,3,3,6,2,6,2,3,3,2,6,2,6,2,6,1,3,3,5,5,5,7,6,2,3,5,2,6,2,5,3,3,2,2,4,4,4,4,5,4,3,4,5,4,6,7,6,5,3,5,2,4,2,2,4,4,4,2,2,4,3,2,2,1,4,2,3,4,4,6,2,5,5,2,2,4,5,4,3,4,3,4,4,4,4,2,4,5,2,3,4,4,4,5,2,4,4,2,5,4,4,4,2,1,3,4,2,3,5,2,5,3,3,2,4,4,2,2,4,4,2,3,1,2,4,2,4,4,2,3
"Oxford",1995,2,7,1,3,2,1,4,0,2,NA,35.55,33.2,37.9,51.75,74,2.777777778,5,1,2,1,NA,4,4,5,NA,7,2,5,5,1,NA,2,7,1,NA,NA,1,1,NA,1,NA,NA,NA,NA,NA,NA,NA,NA,NA,NA,1,4,4,5,3,1,2,3,4,4,3,4,5,4,4,4,3,2,3,2,4,3,3,2,5,3,3,2,4,2,4,3,4,5,4,4,4,4,4,4,4,3,2,2,4,4,5,3,5,2,5,6,5,2,6,5,3,5,3,2,5,3,5,7,5,2,2,2,1,1,1,1,2,2,2,1,2,2,1,2,1,1,3,5,4,4,5,4,2,2,3,4,5,5,5,5,6,6,6,4,2,1,3,4,2,4,3,2,2,2,2,2,2,4,2,5,7,6,7,6,4,6,5,4,2,4,5,5,4,3,5,1,3,1,1,1,5,1,2,4,4,5,1,2,5,5,5,5,3,5,3,2,1,4,3,2,2,4,5,2,2,3,2,4,3,4,1,4,2,5,4,5,1,3,4,4,4,4,2
"Kassel",1995,1,3,2,3,2,1,0,0,2,NA,35.6,35.7,35.5,51.316696166992,71,1,1,1,2,1,NA,4,4,4,4,7,5,7,7,2,1,2,8,1,NA,NA,4,1,NA,1,NA,NA,NA,NA,NA,NA,NA,NA,NA,NA,3,3,4,5,2,3,4,4,2,4,3,3,4,4,2,3,3,2,2,3,3,3,3,3,4,2,2,1,1,1,2,2,1,1,1,3,4,3,3,4,3,1,1,1,2,1,2,4,4,4,4,4,4,4,4,4,4,4,4,4,4,3,4,4,4,4,4,4,4,4,4,4,4,4,4,4,4,4,4,4,4,4,4,4,4,4,5,4,2,2,4,3,4,5,5,5,4,4,3,1,2,2,2,2,2,2,2,2,2,2,2,1,2,2,1,5,6,5,4,3,2,4,3,2,2,4,3,3,4,3,2,3,2,3,2,3,3,2,2,2,2,4,2,3,3,3,3,4,3,4,4,3,2,3,2,2,2,4,2,3,3,3,2,4,3,2,2,4,2,2,3,2,3,2,2,2,2,3,2
"Oxford",1995,1,5,2,3,2,2,4,0,2,NA,35.6,35.5,35.7,51.75,74,2.777777778,5,1,2,1,NA,4,3,5,NA,8,1,4,4,1,NA,2,8,1,NA,NA,1,1,NA,2,"AIESEC","Other university societies",NA,NA,NA,6,4,NA,NA,NA,3,4,3,4,3,3,2,3,2,5,4,4,4,3,4,3,2,2,3,2,2,3,4,2,4,3,3,2,4,2,4,2,3,2,3,3,4,2,3,3,2,2,2,2,4,3,2,3,2,2,2,2,5,2,5,3,2,6,4,3,3,4,4,5,2,5,2,3,2,3,4,3,3,2,2,1,2,1,4,3,2,3,2,5,4,4,4,4,4,2,4,3,5,5,4,5,5,6,3,2,2,2,3,2,2,3,3,2,3,2,2,1,3,4,3,3,4,3,2,3,5,3,3,4,4,2,1,3,4,4,3,5,4,1,4,4,2,4,4,4,2,3,4,4,4,4,2,4,3,3,4,4,3,3,3,2,3,3,4,3,2,4,4,4,3,2,2,3,5,3,3,2,3,5,3,3,3,2,4
"Oxford",1995,1,6,2,2,2,1,5,0,2,NA,35.6,35,36.2,51.75,86,0,5,1,2,1,NA,4,1,5,NA,5,1,4,3,1,NA,2,5,1,NA,NA,1,1,NA,1,NA,NA,NA,NA,NA,NA,NA,NA,NA,NA,4,2,3,3,3,4,2,2,4,3,4,3,3,2,2,4,3,4,3,2,4,3,4,3,5,3,3,3,5,3,4,4,5,4,4,5,2,2,2,3,2,1,3,4,5,2,2,5,3,4,3,3,5,2,5,1,3,2,4,4,1,6,1,5,1,4,4,3,6,6,6,6,6,7,2,3,4,2,5,4,4,5,4,4,4,3,4,5,4,2,3,2,3,3,3,4,4,4,4,2,3,1,4,2,1,2,3,4,2,2,2,1,3,3,3,3,4,4,3,2,3,2,4,4,4,4,4,1,2,1,2,5,3,1,4,4,4,2,5,2,1,2,5,5,1,3,4,4,4,1,3,4,3,3,2,2,3,3,3,2,2,4,5,2,3,2,4,3,3,4,2,2,3,2,2,2,3,2,1
"Oslo",1995,2,7,2,4,2,1,2,1.5,2,NA,35.65,35.1,36.2,59.916702270508,58,-2,4,1,2,1,NA,4,4,5,NA,8,2,8,6,2,2,2,8,3,1,1,1,1,NA,2,"Fotballag","Studentfotball",NA,NA,NA,7,7,0,0,0,3,4,4,4,4,1,4,2,3,4,3,5,2,1,1,2,2,3,1,2,2,2,2,1,2,3,1,2,3,1,2,1,1,3,3,4,3,4,2,2,2,1,2,1,3,2,3,4,4,4,5,4,4,4,3,4,4,5,4,4,2,4,4,2,4,4,4,6,2,2,1,2,4,4,4,4,4,4,3,4,4,4,4,4,4,4,5,5,4,3,4,5,3,3,3,3,2,2,2,1,2,4,2,1,1,1,1,1,1,1,2,3,1,2,3,3,4,1,1,1,2,2,2,2,2,5,5,5,1,3,3,2,2,2,2,3,4,2,4,4,2,4,4,1,5,4,4,3,3,5,3,4,3,1,3,2,1,5,1,5,3,2,1,4,2,3,1,4,4,4,5,5,1,4,3,4,3,2,3
"Oxford",1995,1,4,2,3,2,1,0,0,1,3,35.65,34.7,36.6,51.75,71,1.666666667,5,1,2,1,NA,4,4,5,NA,3,2,8,6,1,NA,2,8,1,NA,NA,2,1,NA,1,NA,NA,NA,NA,NA,NA,NA,NA,NA,NA,2,2,2,2,1,2,2,1,2,2,2,4,2,2,5,3,2,3,4,3,4,4,4,3,2,4,4,3,3,3,3,3,3,3,3,3,3,3,3,3,3,3,3,3,3,3,3,4,4,4,4,4,6,4,6,4,4,6,4,4,2,5,4,5,4,4,4,4,7,7,4,4,4,4,4,4,4,4,4,4,4,4,4,4,4,4,2,4,5,5,5,5,7,6,5,5,5,6,7,2,4,1,2,2,2,4,5,1,2,1,1,3,2,4,1,3,4,4,3,2,2,4,2,3,4,4,2,1,2,1,3,4,3,2,4,4,2,3,4,2,1,1,5,5,3,2,2,3,4,2,3,4,3,2,3,1,1,1,1,1,3,4,2,2,3,1,5,3,4,2,2,4,1,4,3,4,2,2,2
"Kassel",1995,2,6,1,4,2,1,3,0,2,NA,35.65,35,36.3,50.933303833008,71,9,1,1,1,1,NA,4,4,2,2,6,3,6,6,1,NA,2,6,3,2,8,1,1,NA,1,NA,NA,NA,NA,NA,NA,NA,NA,NA,NA,4,2,4,3,2,3,2,3,2,3,3,2,2,4,4,4,3,3,3,3,4,3,2,3,4,4,3,4,4,4,4,4,3,4,4,4,4,3,4,4,4,2,4,4,4,2,4,5,3,4,5,4,4,5,5,3,2,2,5,4,4,5,2,5,2,5,4,5,2,2,4,3,2,2,2,2,2,2,2,7,7,2,2,4,4,3,4,2,3,3,3,3,3,3,3,4,4,4,4,3,4,2,3,2,3,3,4,4,3,3,2,4,2,4,3,5,5,3,4,3,6,6,2,3,1,5,4,4,2,2,4,3,3,1,1,3,3,1,2,3,3,4,2,3,4,5,5,5,3,3,4,3,1,3,4,4,5,4,3,3,3,3,3,4,4,4,2,4,4,3,3,2,4,4,2,2,4,2,2
"VCU",1995,2,7,2,3,2,1,14,0,2,NA,35.66666667,35.38888889,35.94444444,37.552200317383,94,13.33333333,5,1,2,1,NA,4,4,5,NA,4,4,8,8,2,8,2,8,1,NA,NA,4,1,NA,2,"Raas Team (Dance)","Swadhyay","Math Major Group",NA,NA,16,5,2,NA,NA,5,2,3,5,2,4,4,4,1,2,4,2,4,3,3,5,2,2,2,2,3,1,3,4,5,3,4,2,4,2,2,4,4,2,2,2,2,2,4,2,2,2,2,2,4,2,2,3,3,2,3,3,3,3,3,3,3,3,3,2,3,3,3,6,3,5,3,5,3,3,3,2,3,3,3,3,3,3,2,3,6,3,3,5,5,5,5,5,3,3,3,3,5,4,4,4,4,4,4,1,2,1,2,2,4,2,2,3,1,3,2,1,2,4,2,4,5,3,4,4,4,4,2,2,2,4,4,3,4,4,4,3,3,2,4,4,4,2,4,4,2,4,4,4,4,4,4,4,4,4,4,4,1,4,3,1,4,5,4,4,2,4,4,4,2,2,2,2,4,4,2,2,2,4,2,2,2,2,2
"VCU",1995,2,7,1,4,2,1,1,0,2,NA,35.66666667,35.5,35.83333333,38.855697631836,37,17.77777778,5,1,2,1,NA,4,4,5,NA,8,5,5,5,1,NA,2,3,1,NA,NA,1,1,NA,1,NA,NA,NA,NA,NA,NA,NA,NA,NA,NA,3,4,4,4,3,4,3,3,3,3,4,3,3,3,2,3,2,2,1,3,2,3,3,1,3,2,2,3,4,2,2,2,3,4,3,3,2,3,4,4,2,1,1,1,2,2,3,3,3,1,4,4,2,2,4,4,2,3,4,2,4,2,1,4,2,1,1,4,2,1,2,1,2,2,2,2,1,2,1,4,4,2,3,4,4,4,4,5,4,4,4,4,7,6,6,6,6,5,5,3,3,2,2,3,2,3,3,3,2,1,3,5,1,2,2,5,7,5,3,3,3,3,4,2,3,4,3,5,2,4,4,4,3,3,3,3,3,3,4,4,2,4,4,3,3,4,4,4,3,3,4,4,2,3,3,4,4,3,2,5,3,3,2,4,2,2,2,5,3,4,4,4,3,5,3,3,3,3,4
"Oxford",1995,2,7,1,5,2,1,0,0,2,NA,35.7,35,36.4,51.75,89,-1.666666667,5,1,2,1,NA,4,1,5,NA,4,1,8,8,1,NA,2,8,1,NA,NA,1,1,NA,2,"Choir","Rowing","The JCR",NA,NA,7,7,7,NA,NA,3,2,3,4,3,1,2,2,3,4,5,3,4,2,3,3,1,2,2,2,3,2,1,2,5,1,2,3,3,1,3,1,1,3,1,5,2,2,1,3,1,1,1,1,2,2,2,3,3,4,4,2,4,1,1,2,2,2,2,2,1,2,1,5,4,2,1,2,2,1,3,2,1,1,1,1,2,1,1,2,2,1,3,5,5,5,5,5,4,4,5,4,5,5,5,5,5,3,3,2,4,1,2,2,1,3,2,1,1,1,2,1,1,1,1,5,8,6,3,4,3,5,2,4,4,4,2,2,2,4,4,4,3,1,5,4,3,3,2,4,4,3,4,2,4,5,5,4,4,4,4,4,2,2,4,2,1,4,3,4,2,2,2,2,2,2,4,4,4,2,4,4,2,5,4,4,4,2,2
"Tsinghua",1995,2,1,2,2,2,1,0,0,2,0,35.7,35.3,36.1,30.666702270508,86,18,7,3,2,1,0,4,2,5,0,8,2,5,3,1,1,2,8,1,1,1,1,2,1,2,NA,NA,NA,NA,NA,NA,NA,NA,NA,NA,1,4,3,2,4,4,1,1,1,3,2,3,4,3,3,3,3,3,3,3,3,3,3,3,4,3,3,2,4,4,3,2,2,4,4,4,4,2,2,4,2,2,2,2,2,2,2,5,5,1,4,7,5,6,7,2,5,1,4,3,2,6,1,7,1,2,4,4,3,2,2,5,4,5,4,5,4,2,5,3,1,1,4,4,4,4,4,4,4,4,4,4,7,1,3,5,5,5,5,2,2,2,2,2,2,2,2,2,2,2,3,3,2,2,2,5,6,7,1,5,1,6,1,3,3,4,2,4,2,2,4,3,2,1,1,2,4,2,4,4,2,2,4,4,3,4,4,4,4,2,2,2,1,1,2,3,2,4,3,3,3,4,3,4,4,2,2,4,4,2,2,2,3,4,3,3,5,2,2
"Oslo",1995,2,7,1,3,2,1,NA,NA,2,NA,35.7,35.1,36.3,59.912704467773,70,-2,4,1,2,1,NA,4,4,5,NA,2,2,8,5,1,NA,2,3,3,1,4,1,1,NA,1,NA,NA,NA,NA,NA,NA,NA,NA,NA,NA,2,2,3,3,3,4,1,2,2,3,4,3,2,2,2,2,2,2,2,2,3,3,3,2,4,3,2,4,4,1,4,2,2,5,3,5,5,4,5,4,3,1,3,3,1,5,4,2,5,2,2,7,2,2,2,2,2,2,3,5,3,4,2,5,2,6,1,1,2,2,2,2,2,6,2,4,2,4,2,2,2,2,2,4,4,4,4,4,4,4,4,4,4,6,4,4,6,3,3,1,4,1,3,1,1,3,4,3,1,1,2,4,3,4,3,1,2,1,1,1,3,1,1,3,2,4,3,4,3,3,3,3,3,1,1,2,5,1,5,4,3,3,2,2,4,5,4,4,4,4,3,3,1,1,2,2,2,2,2,2,4,3,2,3,4,4,2,3,4,4,4,3,2,3,4,4,3,2,1
"UCSB",1995,2,7,1,4,2,2,0,0,2,NA,35.75,35.72222222,35.77777778,34.41940308,80,8.333333333,5,1,2,1,NA,4,4,5,NA,2,1,5,5,2,1,2,3,1,NA,NA,1,1,NA,1,NA,NA,NA,NA,NA,NA,NA,NA,NA,NA,2,2,2,2,2,2,2,2,2,2,4,2,2,4,4,4,2,2,2,2,4,2,1,4,4,2,5,2,2,2,5,3,3,3,3,2,4,4,4,4,4,2,1,1,1,1,4,5,5,5,7,5,5,7,5,5,6,1,7,6,5,5,7,6,4,5,1,6,2,5,3,3,3,3,2,1,3,3,3,2,2,3,3,4,4,4,4,4,4,4,4,4,7,7,6,6,6,6,6,2,2,2,4,2,2,2,2,2,2,2,4,2,4,4,2,5,6,7,5,5,5,5,2,4,4,4,2,4,2,2,4,4,2,2,2,4,4,2,4,2,4,4,4,4,4,4,2,4,2,4,5,5,1,2,1,2,4,4,4,4,4,4,4,2,2,4,4,4,4,4,4,4,4,4,4,4,4,2,4
"Tsinghua",1995,1,6,1,3,2,1,2,0,2,0,35.75,35,36.5,39.928894042969,21,11,7,3,2,1,0,4,4,5,0,3,2,4,4,2,4,2,4,1,1,1,1,1,8,2,"Ö¾Ô¸ÖÐÐÄ","ÔºÍÅÎ¯",NA,NA,NA,9,5,NA,NA,NA,3,3,4,4,3,4,1,4,4,3,4,3,4,2,3,3,2,2,1,2,2,2,3,1,4,2,1,3,3,2,4,4,4,2,3,4,4,4,4,4,2,3,2,3,4,3,4,3,2,3,3,5,5,4,5,4,4,3,3,5,3,5,2,6,2,2,3,5,3,3,4,3,3,3,3,3,5,3,5,3,5,3,4,4,4,3,4,4,4,3,4,4,6,4,4,6,6,6,6,2,2,2,2,2,2,2,2,2,2,2,2,2,2,3,2,5,8,6,2,2,5,3,4,4,5,4,1,2,4,4,3,5,4,2,4,4,3,2,4,5,3,2,2,4,4,3,4,4,3,4,4,4,2,3,2,2,5,5,4,3,2,4,4,4,4,2,3,4,4,4,4,3,4,4,4,4,4,2,4
"METU",1995,2,7,1,3,2,1,4,0,2,NA,35.8,35.8,35.8,39.911697387695,71,7,3,2,2,1,NA,4,4,4,1,8,4,8,8,1,NA,2,8,3,1,3,1,2,8,2,"AGT","ODT? K?PR?",NA,NA,NA,7,6,NA,NA,NA,3,4,3,3,4,5,2,2,2,1,4,2,2,2,3,3,2,2,1,2,3,2,3,3,4,2,3,4,4,3,4,4,2,2,1,4,2,4,4,4,4,4,3,2,1,1,4,6,5,4,5,4,4,2,4,3,4,3,1,2,5,1,6,1,2,2,1,2,1,1,1,1,1,1,1,4,1,1,1,2,1,1,4,5,5,5,5,5,5,4,3,4,4,5,4,4,6,4,5,2,1,1,2,1,2,3,2,1,3,2,2,1,1,2,4,5,6,6,5,6,4,2,1,3,2,4,5,4,3,2,4,2,2,1,1,3,5,1,5,4,3,5,4,3,4,5,5,3,3,3,4,5,2,2,2,4,4,3,4,2,1,5,2,3,5,3,1,3,4,5,3,5,3,5,3,5,5,1,5
"Oslo",1995,1,7,1,3,2,1,NA,NA,2,NA,35.85,36,35.7,59.912704467773,83,-11,4,1,1,1,NA,4,4,4,2,6,3,5,3,1,NA,2,3,3,1,2,1,1,NA,1,NA,NA,NA,NA,NA,NA,NA,NA,NA,NA,2,2,2,5,5,3,1,3,2,4,3,5,5,2,1,2,1,2,2,2,2,2,2,3,4,3,2,1,1,1,1,1,1,1,1,1,4,4,4,4,4,1,1,1,1,1,4,5,4,1,2,2,1,5,3,2,5,2,1,1,4,1,4,2,2,6,3,4,3,4,1,5,2,1,2,3,3,1,5,2,2,3,1,4,3,4,4,3,3,3,4,4,3,4,4,4,4,3,3,2,4,2,4,2,1,3,3,4,3,1,2,4,2,4,3,5,6,4,1,2,6,4,2,3,3,4,2,2,2,1,4,3,4,3,2,2,3,2,2,4,3,3,3,4,2,5,4,4,4,4,3,3,3,3,3,1,1,4,3,2,4,2,4,2,3,4,2,2,4,4,3,4,3,1,1,1,1,2,4
"Kassel",1995,1,7,1,4,2,1,1,0,2,NA,35.85,35.5,36.2,51.316696166992,55,3,1,1,2,1,NA,4,4,4,4,4,4,4,4,1,NA,2,8,1,NA,NA,1,1,NA,1,NA,NA,NA,NA,NA,NA,NA,NA,NA,NA,3,3,4,4,3,4,2,3,3,3,4,2,3,2,3,3,3,2,2,3,2,2,3,3,4,2,2,1,2,1,2,1,1,3,1,3,4,3,2,4,2,1,1,2,1,1,2,1,1,1,1,4,1,1,1,1,1,1,1,1,2,2,1,3,1,1,1,2,1,1,1,1,1,1,1,1,1,2,1,2,4,1,1,4,5,4,5,5,4,2,4,4,4,3,4,3,2,2,3,2,3,1,3,2,2,2,2,3,3,2,2,2,2,3,1,4,4,4,2,2,3,4,2,3,2,4,2,1,1,1,1,4,2,2,3,4,3,2,3,4,2,5,4,5,4,3,2,4,2,1,3,2,1,1,2,1,2,4,3,2,2,2,3,2,2,2,3,3,3,4,4,4,2,5,3,3,3,1,3
"Oslo",1995,2,4,1,4,2,1,1,0,2,NA,35.85,35.5,36.2,59.916702270508,70,-7,4,1,2,1,NA,4,4,4,1,8,5,8,8,1,NA,2,6,3,1,2,1,1,NA,1,NA,NA,NA,NA,NA,NA,NA,NA,NA,NA,4,4,5,5,4,5,4,4,4,5,5,4,5,3,2,2,2,2,2,2,2,2,2,4,4,1,1,2,3,1,3,2,2,2,4,5,4,4,4,4,2,1,1,1,1,2,2,6,1,1,2,7,1,1,2,1,1,1,2,1,2,2,2,2,1,2,2,2,1,1,1,1,1,1,2,2,2,2,1,4,4,1,1,5,5,5,5,5,3,1,5,4,4,4,4,2,5,4,4,2,2,1,2,2,2,2,2,1,3,1,2,1,2,3,2,4,5,7,2,4,2,3,2,2,3,5,5,3,2,2,4,3,2,2,2,2,2,2,3,2,3,4,2,1,4,5,5,4,4,5,4,4,1,1,1,1,3,4,3,1,2,2,2,4,4,3,3,5,5,3,4,4,1,5,5,3,4,1,1
"METU",1995,2,2,1,3,2,1,4,4,1,15,35.85,35.6,36.1,39.911697387695,74,12,3,2,1,1,NA,4,2,4,1,4,3,4,3,1,NA,2,8,1,NA,NA,1,2,6,1,NA,NA,NA,NA,NA,NA,NA,NA,NA,NA,3,3,5,4,3,3,3,2,3,5,4,4,4,2,3,4,4,3,2,3,2,3,4,4,5,3,2,3,3,4,2,4,2,1,3,3,5,3,3,3,4,2,1,3,2,2,4,7,6,2,5,7,6,2,5,6,1,7,2,2,2,4,7,3,2,1,1,6,2,1,1,2,2,2,1,1,2,1,2,2,2,1,3,4,4,4,4,4,4,5,4,3,5,3,3,3,3,4,4,2,2,4,3,3,4,2,2,1,3,3,2,1,1,2,2,4,6,6,1,4,2,2,1,2,2,4,2,5,4,4,5,4,4,2,2,4,5,1,5,2,4,4,2,2,5,5,5,5,3,3,5,3,2,4,1,2,4,4,3,1,1,3,2,4,2,5,1,5,2,5,3,4,1,4,5,5,3,1,2
"METU",1995,2,7,1,4,2,1,9,1,2,NA,35.85,35.6,36.1,39.911697387695,69,6,3,2,1,1,NA,4,4,4,4,5,3,7,7,2,3,2,8,1,NA,NA,4,1,NA,1,NA,NA,NA,NA,NA,NA,NA,NA,NA,NA,4,5,5,3,1,3,5,5,4,4,4,1,4,3,3,3,2,2,2,2,2,2,2,3,3,2,2,4,2,2,4,4,2,4,4,4,4,4,4,4,4,3,3,3,2,2,4,1,1,2,5,6,7,6,2,1,1,1,1,2,2,1,6,2,2,2,1,6,1,1,1,2,2,1,1,2,2,1,2,6,6,5,2,5,5,5,5,5,2,2,5,2,6,5,5,5,6,5,5,1,2,1,2,1,2,2,1,1,2,3,2,1,3,3,4,3,4,6,4,4,4,4,2,2,4,4,1,3,5,4,4,5,5,2,4,5,5,4,2,3,5,5,4,1,5,5,5,5,5,5,5,5,1,1,1,2,5,5,5,5,1,2,2,5,2,4,2,5,4,5,5,5,4,5,5,4,2,2,4
"SMU",1995,2,7,1,5,2,1,0,0,2,NA,35.85,35.7,36,1.2931060791016,70,27,5,1,2,1,NA,4,4,5,NA,2,2,5,4,1,NA,2,8,1,NA,NA,1,1,NA,1,NA,NA,NA,NA,NA,NA,NA,NA,NA,NA,4,2,5,5,4,5,5,5,3,2,5,5,5,2,2,3,2,2,2,2,3,2,2,2,4,2,3,4,4,3,4,4,4,4,4,3,4,4,4,4,4,2,2,2,2,2,4,2,2,2,2,2,2,2,2,2,2,2,2,2,2,2,2,2,2,2,6,6,2,2,2,2,2,2,2,2,2,2,2,2,2,2,2,5,5,5,5,5,5,5,5,5,3,5,5,5,5,4,4,2,2,2,2,2,2,2,2,4,2,2,2,2,2,4,2,4,5,4,3,3,4,3,2,2,4,2,1,2,4,4,4,4,4,2,4,4,4,4,2,2,4,4,4,4,4,4,4,4,4,3,4,3,2,3,2,2,2,3,4,2,2,4,4,2,4,4,2,4,4,4,4,4,2,4,4,4,4,4,4
"Oxford",1995,1,7,2,4,2,1,0,0,2,NA,35.9,35.8,36,51.75,89,-1.666666667,5,1,1,1,NA,4,4,1,NA,8,6,4,1,1,NA,2,8,3,8,5,3,1,NA,1,NA,NA,NA,NA,NA,NA,NA,NA,NA,NA,4,4,4,4,4,4,3,4,2,4,3,4,5,2,3,3,3,2,2,2,2,2,3,2,4,4,2,2,2,2,2,2,2,2,2,2,3,2,3,3,3,2,2,3,3,3,2,6,4,2,5,5,2,3,5,2,3,7,4,3,3,4,5,5,5,3,4,3,2,2,3,3,4,5,3,2,2,4,2,3,3,3,3,5,5,5,5,5,4,5,5,5,6,7,6,7,6,7,6,2,2,2,2,2,2,2,2,4,2,2,2,2,2,3,2,1,2,6,2,3,2,2,2,4,3,3,3,3,4,5,2,5,3,2,5,5,2,4,3,3,2,4,4,4,3,3,3,3,3,3,3,3,3,3,3,4,4,4,4,4,2,3,3,3,4,2,3,4,3,2,3,3,4,4,4,3,4,4,2
"METU",1995,2,7,1,3,2,1,1,0,2,NA,35.9,35.6,36.2,39.911697387695,71,8,3,2,2,1,NA,4,4,5,NA,8,5,8,6,1,NA,2,8,1,NA,NA,1,1,NA,1,NA,NA,NA,NA,NA,NA,NA,NA,NA,NA,3,2,4,4,2,3,2,4,4,4,4,2,3,4,5,5,4,4,3,3,3,4,4,4,5,4,3,3,2,2,2,3,4,4,4,2,4,2,4,3,4,1,1,4,4,1,4,2,2,1,1,6,7,1,2,3,5,3,1,5,3,2,6,2,1,2,2,2,2,2,1,1,2,2,2,2,2,1,2,1,1,1,2,5,5,4,4,5,5,3,4,2,3,6,7,6,7,5,5,2,2,5,3,2,2,4,2,3,2,2,2,2,3,3,3,4,6,6,1,3,7,4,1,1,4,4,1,1,5,4,4,5,5,1,3,2,4,5,4,4,4,3,5,4,5,5,5,5,5,3,4,5,2,2,1,3,3,2,4,2,1,4,3,4,3,5,4,4,4,4,4,3,4,1,2,4,2,1,5
"Tsinghua",1995,2,5,1,4,2,1,2,0,2,0,35.9,35.4,36.4,39.928894042969,51,7,7,3,2,1,0,4,4,5,0,4,1,6,3,1,1,2,5,1,1,3,1,2,1,1,"Ñ§Éú»î¶¯×éÖ¯","Ö¾Ô¸»î¶¯×éÖ¯","ÉçÍÅ»î¶¯",NA,"£Î£Á",3,2,1,NA,NA,3,2,3,4,3,3,3,4,2,2,4,3,2,3,1,4,3,3,2,3,2,3,3,2,4,2,1,3,3,3,4,4,4,2,4,4,4,2,2,4,2,2,1,1,4,1,4,6,3,4,5,6,5,5,4,4,2,5,2,2,4,4,5,6,2,2,2,6,2,5,2,3,2,3,2,2,6,3,2,2,6,3,3,4,4,4,4,4,4,4,2,3,4,2,4,5,4,3,4,2,3,3,2,2,4,4,2,4,2,3,2,4,2,2,2,4,5,5,2,4,3,5,2,4,4,4,2,4,2,2,4,4,3,3,4,4,2,4,2,2,2,2,4,4,4,4,4,4,4,3,4,4,2,3,2,4,4,4,4,4,2,4,4,4,2,4,2,4,4,4,2,4,2,4,4,4,2,2,4
"Oxford",1995,1,1,2,4,2,1,1,0,2,NA,35.9,37,34.8,51.75,89,-1.666666667,5,1,2,1,NA,4,4,5,NA,4,3,4,3,1,NA,2,5,1,NA,NA,3,1,NA,1,NA,NA,NA,NA,NA,NA,NA,NA,NA,NA,2,4,4,5,2,2,5,3,2,2,3,3,3,3,3,4,2,2,1,2,3,1,2,3,3,2,2,4,4,4,4,3,2,4,4,2,3,4,3,3,3,2,3,3,3,4,3,4,4,4,4,4,4,4,4,4,4,4,4,4,4,4,4,4,4,4,4,4,4,4,4,4,4,4,4,4,4,4,4,4,4,4,4,5,4,4,4,4,4,4,4,4,5,4,4,4,4,4,4,2,4,3,4,3,2,4,3,3,2,2,2,4,2,4,3,4,5,4,2,4,3,4,3,4,5,4,2,3,2,3,1,5,4,1,3,3,3,2,4,3,2,4,5,2,3,3,3,3,3,2,3,4,3,2,3,2,2,2,2,4,3,3,3,3,2,2,3,3,4,3,2,3,3,3,3,3,3,2,3
"METU",1995,2,7,1,3,2,1,NA,NA,2,NA,35.9,35.6,36.2,39.911697387695,60,9,3,2,1,1,NA,4,4,4,1,6,3,6,5,1,NA,2,8,1,NA,NA,1,2,8,2,"Ankara G?n¨¹ll¨¹ Tak?m?","K?pr¨¹",NA,NA,NA,10,6,NA,NA,NA,4,4,4,3,2,4,2,2,2,3,4,2,2,4,3,4,2,2,2,2,4,2,2,4,4,2,3,4,4,4,4,4,4,4,3,4,4,4,4,4,4,2,3,3,2,3,4,6,3,2,5,6,6,5,2,3,2,7,2,2,1,1,6,3,2,1,1,2,2,2,2,1,2,2,2,1,2,2,2,2,2,1,2,5,5,5,5,5,4,3,4,4,7,7,7,7,6,6,7,2,2,2,2,2,2,2,2,2,2,2,2,2,4,2,2,5,6,6,2,4,3,3,2,2,2,5,4,3,5,3,3,4,3,1,1,3,4,2,4,4,4,4,2,3,5,5,5,5,5,5,5,5,1,1,1,2,4,4,4,3,2,3,3,3,4,5,1,4,2,5,5,4,1,5,5,5,4,2,4
"SMU",1995,2,3,2,3,2,1,0,0,2,NA,35.9,36,35.8,1.2931060791016,71,26,5,1,2,1,NA,4,4,5,NA,1,NA,6,5,1,NA,2,8,1,NA,NA,1,2,3,2,"Scholarship programme","School club","LGBT support group",NA,NA,4,1,6,NA,NA,2,3,4,3,1,3,1,3,2,1,4,2,4,3,3,3,2,3,2,2,2,2,2,4,4,2,2,5,5,4,5,3,3,4,4,4,4,4,3,4,4,1,2,2,4,4,4,5,5,5,5,4,5,2,5,5,4,5,4,4,4,5,4,5,4,4,4,5,4,4,4,5,4,4,4,4,5,4,5,4,5,3,4,5,4,5,5,4,5,5,5,5,3,5,4,4,5,5,5,2,3,3,4,2,4,2,3,3,2,2,1,1,2,3,3,4,6,4,5,4,6,6,2,4,4,2,1,3,3,3,4,4,2,1,4,4,4,4,4,3,2,3,5,2,4,5,4,3,3,3,3,3,3,3,2,2,2,3,1,4,1,2,2,4,1,3,3,3,5,3,3,3,3,4,2,2,3,1,5
"VCU",1995,2,7,1,3,2,1,3,0,2,NA,35.91666667,35.94444444,35.88888889,37.552200317383,94,13.33333333,5,1,2,1,NA,4,4,4,3,2,2,8,8,1,NA,2,8,3,1,5,1,1,NA,2,"Delta Epsilon Mu","Alpha Gamma Delta",NA,NA,NA,15,3,NA,NA,NA,2,2,4,4,2,5,3,3,2,3,4,3,4,2,3,4,2,3,1,2,2,3,3,4,5,2,2,4,5,2,5,2,4,5,3,5,4,4,5,4,5,2,5,2,5,2,5,4,4,4,6,7,4,4,5,4,2,4,4,5,5,5,4,5,1,2,2,2,2,2,1,2,1,1,2,2,2,1,1,1,2,1,3,5,3,4,4,4,5,5,4,4,7,7,5,7,7,7,5,1,1,1,1,1,1,2,1,1,1,1,2,1,1,3,1,5,8,7,6,6,4,5,4,4,2,5,2,4,4,5,5,4,2,1,4,4,2,1,4,1,4,5,4,3,5,5,5,5,3,5,3,3,1,2,3,3,5,3,4,2,2,3,3,3,3,4,2,1,5,4,4,4,1,5,5,4,5,5,5
"VCU",1995,2,5,2,3,2,1,0,0,2,NA,35.94444444,35.27777778,36.61111111,NA,68,10.55555556,5,1,2,1,NA,4,2,5,NA,3,3,3,3,1,NA,2,6,3,1,2,1,1,NA,1,NA,NA,NA,NA,NA,NA,NA,NA,NA,NA,5,4,4,3,2,3,3,4,4,3,5,5,4,2,2,3,1,1,1,3,2,4,3,3,5,2,3,2,2,2,2,2,2,2,3,2,4,2,3,1,2,1,3,2,2,2,2,2,3,3,3,4,2,1,5,2,3,2,3,2,2,5,2,6,1,3,2,3,3,2,4,5,3,2,2,2,2,2,5,3,3,3,3,4,4,3,4,4,3,3,4,3,4,4,5,4,4,3,4,2,2,4,3,2,4,2,3,4,2,2,2,3,2,3,2,3,3,3,2,2,3,4,2,2,3,4,3,4,2,3,4,4,2,1,2,2,3,2,3,3,2,2,4,3,3,4,2,4,3,3,4,3,2,3,3,2,4,4,4,4,2,3,3,2,3,2,1,4,4,3,3,3,3,4,4,4,4,2,2
"UCSB",1995,2,6,1,3,2,1,0,0,1,0,35.94444444,35.61111111,36.27777778,NA,86,12.22222222,5,1,2,1,NA,4,4,5,NA,8,1,5,1,1,NA,2,8,1,NA,NA,1,1,NA,1,NA,NA,NA,NA,NA,NA,NA,NA,NA,NA,2,4,2,4,2,4,2,2,2,4,4,4,2,2,4,3,2,2,2,2,2,2,2,2,4,2,2,2,4,2,4,2,2,2,2,2,2,2,4,2,2,2,2,2,2,4,2,2,2,2,2,2,2,2,2,2,2,2,2,2,2,2,2,2,2,2,2,2,2,2,2,2,2,2,2,2,2,2,2,2,2,2,2,5,5,5,5,5,4,2,3,4,3,3,3,3,2,2,2,2,4,2,4,2,4,2,2,2,2,2,2,2,2,2,2,5,6,5,2,3,3,1,2,4,4,4,2,4,4,4,2,4,2,2,4,4,2,3,4,4,4,4,4,3,4,4,3,4,4,3,4,4,2,2,2,4,4,4,2,2,4,4,2,2,4,4,2,4,4,4,4,4,2,4,4,4,4,2,4
"Poland",1995,2,7,1,5,2,1,22,0,2,NA,35.95,36.3,35.6,54.350006103516,78,2,9,1,1,1,NA,4,2,3,1,6,4,2,2,2,1,2,6,2,1,1,1,1,NA,1,NA,NA,NA,NA,NA,NA,NA,NA,NA,NA,3,4,4,4,3,4,4,4,2,4,4,3,4,3,2,3,5,5,5,5,2,4,4,3,4,4,2,4,4,3,2,2,1,3,1,3,4,4,4,4,4,2,2,2,2,4,4,1,1,1,1,1,5,1,1,1,1,7,1,1,1,1,4,2,2,1,1,4,1,1,1,1,2,1,1,1,2,1,1,4,4,2,2,5,5,5,5,5,4,4,5,5,2,4,4,4,3,2,2,2,2,2,2,2,3,4,2,2,3,4,3,2,2,2,2,4,4,6,3,4,4,2,4,4,2,4,2,3,3,3,3,4,2,2,2,2,2,2,2,2,2,4,4,4,4,4,4,4,3,2,4,3,1,1,1,1,3,4,3,3,3,4,4,2,4,4,4,2,4,4,4,3,2,3,4,4,3,2,4
"SMU",1995,2,3,2,4,2,1,0,0,2,NA,35.95,36,35.9,1.2931060791016,70,27,5,1,2,1,NA,4,4,5,NA,3,2,8,6,2,2,2,8,1,NA,NA,1,1,NA,2,"Overseas Community Service Group","School projects",NA,NA,NA,15,5,NA,NA,NA,4,4,4,4,2,3,4,5,4,5,4,4,5,2,2,2,2,2,2,2,2,2,2,3,4,2,2,3,5,1,4,4,1,2,2,3,2,2,2,2,2,2,2,2,2,2,2,1,2,2,4,5,3,2,5,1,2,2,1,3,2,3,2,2,2,2,3,5,3,2,2,2,2,3,1,3,3,3,2,3,3,1,3,3,3,4,4,4,4,4,4,4,7,7,7,7,5,6,6,2,2,2,2,3,4,2,2,3,1,2,4,2,2,2,2,4,4,4,2,2,5,4,2,2,4,3,3,2,4,4,3,5,4,2,4,4,3,4,2,4,3,4,4,4,3,5,4,4,4,4,4,4,2,4,2,2,2,2,3,4,2,4,3,2,2,4,3,4,4,2,4,4,2,4,3,3,3,3,4
"METU",1995,2,6,2,2,2,2,NA,NA,2,NA,35.95,36.4,35.5,39.911697387695,71,7,3,2,2,1,NA,4,4,5,NA,8,4,4,3,1,NA,2,8,1,NA,NA,3,1,NA,1,NA,NA,NA,NA,NA,NA,NA,NA,NA,NA,4,3,1,4,3,3,3,1,1,1,3,2,1,3,4,4,3,3,3,4,3,3,3,3,4,3,3,5,5,2,5,2,3,1,1,2,2,2,2,2,2,2,2,2,2,2,2,5,2,2,5,7,6,5,5,2,1,2,2,2,2,2,5,4,2,1,1,3,1,2,2,2,1,1,1,1,1,1,2,1,1,1,3,5,2,5,4,3,5,5,5,5,2,5,4,4,3,3,3,2,2,2,2,2,3,2,2,3,2,2,2,2,4,2,1,4,8,7,6,6,6,6,1,3,3,5,5,4,5,3,4,2,2,1,1,2,4,1,4,5,3,5,4,3,4,5,5,5,5,3,5,5,1,1,1,2,4,3,1,3,4,4,4,5,5,5,1,4,4,5,3,5,3,5,5,5,3,1,1
"Poland",1995,2,7,1,4,2,1,20,14,2,NA,35.95,35.8,36.1,52.25,68,0,9,1,2,1,NA,4,4,4,4,5,3,5,3,2,1,2,8,2,1,1,1,1,NA,1,NA,NA,NA,NA,NA,NA,NA,NA,NA,NA,2,5,4,4,5,4,2,4,2,3,4,3,5,3,4,3,5,4,4,5,3,2,3,3,5,4,3,3,4,2,4,3,4,2,3,4,5,5,5,4,5,1,4,2,2,2,5,6,5,2,2,4,2,2,1,2,1,6,2,2,1,2,4,2,1,2,3,5,1,4,3,3,6,2,2,2,6,4,3,6,6,1,1,5,5,3,5,5,5,5,5,5,5,4,4,4,6,5,4,5,4,1,4,2,4,5,3,3,3,3,1,5,2,2,2,5,5,4,3,2,5,6,2,5,4,4,2,3,2,3,4,4,2,2,4,5,4,3,2,3,2,4,4,5,3,5,4,4,4,3,4,4,1,1,1,3,4,3,4,1,2,3,4,3,5,3,2,3,4,4,4,4,4,2,3,2,3,2,2
"Oxford",1995,2,7,2,4,2,1,3,0,1,3,36,35.9,36.1,51.75,86,0,5,1,2,1,NA,2,2,5,NA,2,2,5,3,1,NA,2,8,1,NA,NA,8,1,NA,2,"Portuguese faculty","German tutorial group","Polo","college",NA,7,4,3,7,NA,2,2,4,3,2,3,2,4,2,1,5,3,4,1,5,4,2,1,2,2,1,2,2,3,5,2,2,1,1,2,2,1,1,3,1,1,3,2,2,2,2,2,1,1,2,1,2,4,6,5,6,6,5,4,6,2,4,4,3,4,1,6,2,6,1,5,4,6,6,5,4,4,6,6,5,4,4,3,5,2,6,5,4,5,4,3,4,4,3,2,2,2,2,2,3,1,3,3,2,2,2,1,2,2,2,1,4,1,1,1,1,2,1,3,2,3,2,1,2,2,2,2,2,2,4,4,2,2,2,1,4,4,3,2,5,4,4,2,2,5,3,2,5,4,5,4,4,3,2,3,3,3,3,2,3,1,4,5,2,5,2,1,2,4,2,1,2,3,4,2,1,2,4,4,2,2,2,2,2
"Oslo",1995,2,6,1,4,2,1,NA,NA,2,NA,36,36,36,59.912704467773,70,-2,4,1,1,1,NA,2,2,4,2,3,2,6,6,1,NA,2,8,3,1,4,1,1,NA,1,NA,NA,NA,NA,NA,NA,NA,NA,NA,NA,2,3,3,5,1,4,1,3,1,3,2,3,4,4,4,4,3,4,2,3,5,1,3,2,5,3,4,4,4,2,3,2,2,2,3,5,5,5,4,5,4,2,4,3,2,2,2,2,2,5,2,7,3,2,2,2,1,2,1,1,2,7,2,5,1,2,2,4,2,2,2,2,2,6,2,3,3,2,2,2,5,1,2,5,4,4,5,5,5,3,4,3,5,6,7,6,5,4,5,1,2,1,3,1,1,1,3,5,1,3,3,1,2,4,3,4,4,3,1,2,1,1,2,4,4,4,3,2,2,2,4,4,5,1,4,5,5,3,4,4,4,4,4,2,2,4,3,3,3,3,3,3,2,2,3,2,1,4,3,2,2,3,4,5,4,4,1,5,5,5,5,2,4,4,3,1,4,2,2
"SMU",1995,2,6,2,3,2,1,2,0,1,3,36,35.5,36.5,1.2931060791016,70,26,5,1,2,1,NA,4,4,5,NA,1,NA,8,8,2,1,2,8,1,NA,NA,1,2,3,2,"Even organising committee",NA,NA,NA,NA,1,NA,NA,NA,NA,4,2,1,2,1,2,2,1,3,1,3,3,3,3,3,4,4,3,4,2,4,4,2,3,4,3,4,5,4,2,5,5,1,4,5,5,4,5,5,4,5,2,5,4,2,5,5,4,5,6,5,6,4,4,7,4,5,5,2,4,2,3,6,6,2,2,1,2,2,3,2,3,4,3,3,3,3,3,3,2,2,1,3,5,5,5,5,5,4,4,5,5,5,5,3,6,6,6,4,2,2,1,2,2,1,4,2,1,1,1,4,5,4,4,4,4,6,5,3,2,1,4,2,5,5,2,1,2,2,2,4,5,5,1,5,5,4,5,2,5,4,5,3,5,4,5,5,4,2,4,3,2,2,2,3,1,1,4,2,2,2,3,5,4,4,4,3,4,4,4,4,2,1,3,4,2,3,1,2
"VCU",1995,2,6,1,1,2,1,0,0,2,NA,36.02777778,35.72222222,36.33333333,37.287902832031,89,15,5,1,2,1,NA,4,4,5,NA,2,2,3,3,2,8,2,4,1,NA,NA,1,2,4,1,NA,NA,NA,NA,NA,NA,NA,NA,NA,NA,2,1,1,4,2,3,1,2,2,1,3,4,4,4,3,4,3,3,3,3,3,4,3,4,3,3,4,4,4,4,4,4,2,2,5,4,4,4,4,4,4,2,2,2,4,3,4,6,5,6,6,5,5,2,5,2,4,6,5,2,6,7,5,6,2,5,4,5,6,4,6,5,3,5,4,3,3,4,7,4,6,3,3,5,5,5,5,5,2,2,4,4,4,5,4,6,6,3,4,4,3,3,4,2,4,4,4,4,4,4,2,2,2,1,2,3,2,3,2,2,4,4,1,5,5,1,1,2,1,1,1,5,5,1,5,5,4,4,3,1,1,1,5,5,4,3,3,4,4,2,2,2,2,2,2,2,5,4,3,1,4,5,4,4,4,1,2,4,4,1,2,1,4,4,2,2,2,1,1
"METU",1995,2,6,1,4,2,1,0,0,2,NA,36.05,35.5,36.6,39.911697387695,62,5,3,2,2,1,NA,4,4,5,NA,4,3,3,3,1,NA,2,7,1,NA,NA,1,2,1,1,NA,NA,NA,NA,NA,NA,NA,NA,NA,NA,4,2,3,4,3,4,1,2,2,3,4,2,2,3,4,4,4,3,3,3,3,4,3,3,4,3,3,3,3,2,4,4,2,4,1,2,4,4,3,3,4,1,1,2,1,2,4,6,1,1,3,6,6,5,2,2,1,3,1,1,2,1,5,1,1,1,1,2,2,1,5,5,2,2,1,1,1,1,5,2,2,2,2,4,4,4,4,5,4,3,4,4,5,5,5,5,4,4,4,2,2,1,2,2,2,1,2,2,1,2,1,2,3,2,1,4,6,6,1,4,5,4,3,1,4,5,3,1,2,4,2,5,5,2,3,5,5,2,2,2,2,5,4,3,4,4,4,4,4,3,4,4,1,1,1,4,4,2,2,2,3,2,3,4,2,1,2,2,4,4,3,4,2,4,4,4,2,2,4
"METU",1995,1,6,2,4,2,1,0,0,1,8,36.05,35.9,36.2,39.911697387695,56,4,3,2,2,1,NA,4,4,5,NA,6,3,6,5,1,NA,2,6,1,NA,NA,2,1,NA,2,"foto?raf??l?k","bostan","samsun tayfa","y¨¹zy?l tayfa",NA,12,4,1,6,NA,4,4,2,4,3,4,2,2,2,2,3,3,3,3,3,3,3,3,3,3,2,3,3,2,4,2,3,3,3,4,3,3,2,4,2,2,4,3,4,4,3,2,2,2,2,2,2,5,3,4,4,4,5,3,4,3,4,3,3,4,5,5,6,3,3,2,3,3,3,3,2,3,3,3,3,2,5,2,3,3,3,2,4,4,4,4,4,4,4,3,3,4,4,5,5,4,6,6,5,2,3,1,3,2,2,4,2,2,2,2,2,2,2,3,2,4,6,3,2,4,4,1,4,2,4,4,2,2,4,3,3,4,3,2,2,3,3,2,4,3,3,4,3,3,4,4,4,4,4,4,4,4,2,2,3,3,2,3,2,4,2,2,2,4,4,3,2,3,2,4,4,4,2,3,3,4,2,3,2
"SMU",1995,2,7,1,3,2,1,NA,0,2,NA,36.05,36.1,36,50.917098999023,70,27,5,1,2,1,NA,4,4,5,NA,6,6,5,4,1,NA,2,8,1,NA,NA,2,2,2,2,"APEX Business Global-IT Case Challenge Organising Committee",NA,NA,NA,NA,2,NA,NA,NA,NA,3,1,2,2,2,4,1,1,1,3,3,2,1,3,3,2,3,3,2,2,3,3,3,4,2,2,2,3,4,2,4,4,5,1,1,4,4,4,4,3,2,1,1,1,2,2,3,2,2,1,1,1,2,1,5,1,2,2,1,1,2,1,2,1,1,2,2,1,2,3,1,2,1,2,1,1,1,2,2,1,1,2,1,5,4,5,5,5,4,2,3,3,6,5,5,3,4,3,5,2,2,2,3,1,2,3,3,1,1,1,3,4,2,4,2,4,5,5,2,4,4,4,3,4,5,2,1,2,5,5,4,5,5,2,4,5,4,5,1,3,3,3,5,5,2,4,3,5,4,3,4,4,1,1,2,1,2,4,2,2,3,4,4,3,1,4,2,3,4,4,5,5,2,3,4,4,2,1,5
"Southampton",1995,2,7,1,3,2,1,0,0,2,NA,36.05,35.9,36.2,1.2931060791016,60,3,5,1,2,1,NA,4,2,4,1,4,4,8,8,2,8,2,8,3,1,4,1,2,4,1,NA,NA,NA,NA,NA,NA,NA,NA,NA,NA,4,4,4,5,5,5,3,4,1,2,3,5,4,3,2,4,3,2,3,3,4,2,4,3,4,2,3,2,4,2,4,2,2,4,4,4,4,4,4,4,2,2,2,2,2,2,4,2,4,2,3,2,3,1,5,3,2,3,2,5,2,1,2,5,1,1,2,2,1,2,2,1,1,2,1,1,1,2,2,4,3,1,1,4,5,4,4,5,4,2,4,4,7,5,4,3,5,5,5,2,2,1,2,4,2,2,2,2,2,2,2,2,1,2,1,4,5,6,2,3,3,1,2,4,2,4,4,4,4,4,4,4,2,2,2,4,5,2,4,4,2,2,4,4,5,4,4,4,4,3,4,5,2,2,4,2,4,5,4,2,2,4,2,4,4,4,2,2,5,4,3,4,4,4,4,5,5,2,2
"SMU",1995,2,7,1,3,2,1,0,0,2,NA,36.05,35.9,36.2,1.2931060791016,71,26,5,1,2,1,NA,4,4,5,NA,2,4,6,6,2,3,2,6,1,NA,NA,1,1,NA,1,NA,NA,NA,NA,NA,NA,NA,NA,NA,NA,4,4,4,4,4,4,2,3,2,4,5,4,5,4,2,3,2,2,2,2,3,2,2,2,5,2,3,4,4,4,4,4,4,3,3,4,4,2,4,4,2,2,2,2,2,2,4,5,5,5,5,5,5,3,5,5,5,5,4,5,5,6,5,7,2,5,4,5,4,4,5,5,5,5,3,4,4,4,5,5,4,5,4,4,4,3,4,4,4,3,4,4,6,6,6,6,6,6,6,4,4,4,4,4,4,4,4,3,4,2,2,4,2,5,2,5,5,5,3,3,5,6,4,3,4,3,1,2,4,4,4,4,4,1,5,3,3,3,4,4,1,2,4,5,4,3,3,4,3,3,3,3,2,2,2,4,2,4,4,4,2,2,4,4,4,3,3,4,4,2,3,3,4,5,3,4,2,3,4
"SMU",1995,2,6,2,2,2,1,5,1,2,NA,36.05,36.1,36,1.2931060791016,79,26,5,1,2,1,NA,4,4,5,NA,6,1,4,4,1,NA,2,8,1,NA,NA,1,1,NA,2,"Co-Cirricular Activity",NA,NA,NA,NA,5,NA,NA,NA,NA,4,2,1,2,1,4,2,3,1,1,2,2,2,3,2,4,3,3,3,4,3,3,3,2,5,1,3,4,4,4,5,4,2,4,4,4,4,3,2,2,1,1,1,2,2,4,2,4,5,5,5,3,7,2,5,4,2,3,3,4,4,3,3,7,1,3,3,5,5,3,5,6,3,3,3,3,6,3,5,3,4,3,3,4,4,4,5,5,4,4,4,3,5,5,4,4,7,6,5,2,2,2,2,2,2,4,2,2,5,2,2,1,2,2,2,1,1,1,1,2,2,1,4,4,5,2,1,2,4,5,3,5,5,1,3,5,5,4,4,4,3,4,4,2,5,4,4,3,3,4,2,2,4,2,3,2,2,3,2,4,1,3,2,4,4,4,4,4,4,4,4,2,4,4,3,2,2,1,2
"SMU",1995,2,6,2,3,2,1,1,0,2,NA,36.05,35.9,36.2,1.2931060791016,70,26,5,1,2,1,NA,4,4,5,NA,2,2,8,8,2,1,2,8,1,NA,NA,1,1,NA,2,"Project Group Mates","CCA Mates","Exco members","Ex school mates","Dance Mates",5,20,6,6,2,3,2,2,2,3,4,2,3,2,2,2,2,4,4,4,4,3,3,3,3,4,3,3,4,4,3,4,4,4,4,4,4,4,4,4,4,4,4,4,4,4,2,3,4,4,2,4,4,4,4,4,4,4,4,4,4,4,2,4,4,4,4,4,4,4,4,4,4,4,4,4,4,4,4,4,4,4,4,4,4,4,4,4,5,5,5,5,5,5,5,5,5,6,5,5,5,5,5,5,2,2,3,2,2,2,2,3,3,2,2,3,4,2,4,2,5,7,4,1,1,1,7,3,4,4,2,2,2,2,4,4,4,4,2,4,4,4,4,4,3,3,3,5,5,2,2,4,3,4,3,3,4,3,2,3,3,2,2,2,2,3,3,4,2,4,2,2,4,4,3,2,3,2,4,2,3,4,3,4
"Oxford",1995,2,7,1,3,2,1,1,1,2,NA,36.1,36,36.2,51.75,74,2.777777778,5,1,2,1,NA,4,4,4,1,3,1,8,8,1,NA,2,8,3,8,8,1,2,7,2,"Committee","Volunteer RA","Part-time Job","Undergraduate Coursemates","Hometown Friends",3,6,6,5,3,3,2,4,5,4,2,2,3,5,4,5,4,4,1,3,3,2,2,2,2,2,3,2,2,5,3,1,1,2,1,1,1,1,1,2,2,2,3,2,2,2,2,2,2,4,1,1,2,3,2,6,5,4,1,5,4,1,5,1,2,1,2,1,2,1,1,1,2,1,1,1,1,1,1,2,1,1,1,1,1,2,2,2,4,4,4,3,2,1,1,2,4,6,5,4,5,5,4,4,2,2,1,2,1,3,2,2,1,2,2,2,3,1,1,2,5,8,7,4,5,2,3,2,4,4,4,3,4,3,4,4,4,2,2,3,4,4,2,2,4,2,2,5,4,5,4,3,5,1,3,5,2,2,5,3,2,2,4,4,2,2,2,4,4,4,2,2,4,4,2,2,4,2,5,4,5,4,2,4
"Zurich",1995,2,7,1,3,2,1,2,0,2,NA,36.1,36.1,36.1,47.394393920898,88,-2,1,1,2,1,NA,4,4,4,1,5,3,4,4,1,NA,2,7,1,NA,NA,2,1,NA,2,"Chor","Uni","Familie","Freunde","WG",6,7,3,3,1,2,3,4,3,3,3,2,2,3,4,4,3,3,2,3,4,3,2,2,2,4,2,2,3,4,2,3,4,4,2,4,2,1,3,2,4,4,4,3,4,2,2,3,4,2,2,2,5,3,3,4,4,3,6,3,4,3,4,5,3,3,2,3,3,2,2,2,3,2,2,3,3,3,3,3,5,2,4,2,5,3,3,3,5,5,5,4,4,4,4,4,4,4,7,7,6,6,6,6,3,4,2,3,3,4,4,4,2,2,4,1,2,2,4,2,4,5,6,4,4,4,5,4,2,2,5,4,4,2,2,1,2,2,2,3,4,2,1,3,4,2,4,3,4,4,4,3,4,4,4,4,3,2,2,4,2,4,4,2,4,2,2,3,3,3,4,2,4,4,3,4,4,4,4,4,3,3,3,3
"Tsinghua",1995,1,1,1,3,2,1,8,0,2,0,36.1,36.1,36.1,30.580093383789,74,16,7,3,2,1,0,4,2,5,0,1,0,5,2,1,1,2,8,2,2,8,1,2,1,2,"°à¼¶",NA,NA,NA,NA,NA,NA,NA,NA,NA,4,4,3,4,3,4,1,3,2,3,4,3,2,2,4,4,3,2,1,3,2,3,3,2,4,2,2,3,4,3,3,4,3,2,4,5,3,4,2,2,2,2,2,2,2,3,2,6,5,2,6,6,6,6,2,1,4,3,2,4,4,2,4,5,2,3,2,2,2,1,1,2,1,2,2,2,2,2,1,1,2,2,4,4,4,4,4,4,3,3,2,4,7,2,2,3,6,6,5,3,3,3,3,3,4,3,3,3,3,3,3,3,2,3,3,5,7,1,6,1,5,6,2,2,4,4,2,2,1,2,2,5,4,4,2,4,2,2,2,4,2,2,4,4,4,1,1,5,4,4,3,3,4,3,2,2,2,3,4,2,2,4,2,4,4,1,3,4,1,1,1,3,4,4,4,3,4,3,1
"VCU",1995,2,7,2,5,2,1,36,0,2,NA,36.11111111,35.94444444,36.27777778,36.429000854492,89,11.66666667,5,1,4,1,NA,3,3,5,NA,5,3,6,6,1,NA,2,8,3,1,8,1,1,NA,1,NA,NA,NA,NA,NA,NA,NA,NA,NA,NA,5,5,5,5,2,4,3,3,2,3,5,5,3,4,5,5,4,5,4,5,5,4,2,4,5,3,4,4,4,4,4,2,2,4,4,4,4,4,4,4,4,2,2,2,4,4,4,3,3,3,5,6,5,2,2,3,5,2,3,5,3,3,6,3,2,5,3,7,2,2,2,1,3,2,2,3,1,2,2,7,7,2,5,5,5,5,5,5,5,2,5,5,7,6,4,3,3,6,6,5,5,1,4,2,5,4,5,5,5,2,2,3,2,3,3,5,7,5,1,5,6,6,2,4,4,4,2,5,5,3,5,5,2,1,4,4,4,5,2,4,2,4,5,5,2,5,5,4,4,4,3,3,1,1,3,5,5,5,4,2,2,4,2,5,4,1,1,4,5,5,2,4,1,4,4,2,4,1,2
"METU",1995,1,7,2,3,1,1,2,NA,2,NA,36.15,36.3,36,39.911697387695,64,2,3,2,2,1,NA,4,4,5,NA,4,1,5,5,1,NA,2,8,1,NA,NA,4,1,NA,2,"Biyogen Ekoloji","PFS Ankara",NA,NA,NA,20,45,NA,NA,NA,3,2,2,4,2,2,2,1,3,3,3,4,3,4,3,2,3,3,2,2,3,3,3,4,4,3,2,1,1,1,3,2,1,1,1,1,3,2,2,3,2,1,1,1,2,3,2,3,1,1,1,4,1,2,4,2,2,1,3,4,5,3,3,4,1,1,2,1,2,6,1,1,1,2,3,2,3,2,1,1,2,1,4,3,4,4,3,4,3,2,1,1,5,3,5,4,5,4,5,3,2,3,2,2,4,4,2,2,3,2,2,2,2,2,2,3,3,3,1,1,3,2,4,4,4,4,3,1,1,3,2,4,4,2,3,5,5,4,2,3,4,4,3,4,5,3,4,5,3,2,4,3,1,2,1,1,2,4,4,2,1,4,3,4,4,4,3,4,3,4,4,4,2,4,2,3,1,1,3
"SMU",1995,2,6,1,4,2,1,4,0,2,NA,36.15,36.1,36.2,1.2931060791016,79,26,5,1,2,1,NA,4,1,5,NA,1,NA,3,8,2,2,2,8,1,NA,NA,1,1,NA,2,"AIESEC",NA,NA,NA,NA,7,NA,NA,NA,NA,3,3,4,4,3,2,2,3,2,2,2,2,5,3,2,3,3,2,2,3,4,3,3,3,4,4,3,2,3,2,3,1,2,3,2,1,3,3,3,3,1,1,1,1,1,2,1,5,3,3,5,5,4,3,5,4,5,5,4,4,3,3,5,4,3,3,3,5,3,3,4,3,4,4,5,3,5,4,3,5,4,4,4,4,4,4,4,4,4,4,4,4,1,4,2,4,4,2,3,4,2,3,2,2,3,3,2,3,2,2,2,2,2,3,2,1,2,4,2,2,2,2,2,2,4,3,2,2,2,2,2,5,3,2,3,5,5,3,3,4,2,4,2,3,3,3,3,4,4,4,4,3,2,2,2,2,2,2,2,4,3,3,3,3,2,3,3,3,3,3,3,3,3,3,3,2,3,3,4
"METU",1995,1,7,1,4,2,1,4,0,2,NA,36.15,36,36.3,39.911697387695,64,6,3,2,2,1,NA,4,4,4,1,8,3,5,5,2,8,2,8,1,NA,NA,1,1,NA,1,NA,NA,NA,NA,NA,NA,NA,NA,NA,NA,3,4,5,3,4,5,4,2,2,3,3,4,2,3,5,4,3,3,2,4,4,3,3,5,5,1,3,2,2,2,3,2,4,3,2,1,4,4,4,2,4,2,1,3,4,2,2,7,2,1,2,7,6,2,2,4,1,3,2,4,1,2,6,3,1,1,2,2,2,2,3,1,2,2,4,1,1,1,2,1,1,1,1,5,5,4,5,5,5,4,3,3,6,6,6,7,7,6,6,5,5,3,4,4,4,5,4,3,4,5,2,5,2,3,3,4,6,7,2,4,6,5,2,4,5,4,2,2,3,2,4,5,3,1,4,5,3,4,3,2,4,5,3,3,4,5,5,5,4,5,5,4,2,3,3,2,4,4,3,2,3,4,5,4,4,5,2,5,2,4,4,4,1,3,4,2,3,2,3
"Oxford",1995,2,1,1,4,2,1,0,2,2,NA,36.15,35.4,36.9,51.75,88,-2.222222222,5,1,2,1,NA,4,4,5,NA,2,2,8,3,2,3,2,8,1,NA,NA,3,1,NA,1,NA,NA,NA,NA,NA,NA,NA,NA,NA,NA,4,5,3,3,3,5,2,5,3,3,4,3,3,3,3,3,2,2,2,2,3,2,2,3,4,2,3,3,3,2,3,2,2,3,4,2,4,4,4,4,4,2,2,3,4,2,4,3,5,1,3,3,1,1,4,5,1,2,3,5,4,1,1,1,3,3,2,3,1,1,6,1,1,1,1,1,1,1,2,2,2,1,1,5,5,5,5,5,5,5,5,5,4,5,5,4,3,3,3,2,2,4,1,2,4,2,2,2,2,2,1,2,2,3,1,3,4,5,3,3,2,3,4,5,4,4,2,2,5,5,3,5,2,2,4,5,2,4,2,3,4,4,3,3,4,4,4,4,4,4,4,3,2,2,2,2,4,4,3,2,3,4,4,3,2,2,3,4,2,2,2,4,2,2,4,4,4,4,4
"Oslo",1995,2,6,1,4,2,1,NA,NA,1,1,36.15,36.2,36.1,59.912704467773,70,-2,4,1,2,1,NA,4,3,5,NA,6,4,6,5,2,1,2,5,1,NA,NA,1,1,NA,1,NA,NA,NA,NA,NA,NA,NA,NA,NA,NA,4,3,4,2,3,4,3,3,5,2,4,4,4,4,3,4,3,3,4,3,3,2,3,2,5,2,3,3,4,3,4,2,2,2,2,4,4,4,4,4,3,1,2,2,3,2,4,5,2,2,3,5,5,1,5,3,2,2,2,2,1,5,1,6,1,3,2,6,3,2,3,2,2,2,2,1,3,2,3,1,1,2,2,2,4,4,4,3,4,2,4,4,6,5,6,5,5,4,5,3,2,3,3,2,4,2,2,2,2,2,3,4,2,2,2,4,5,3,3,2,1,1,1,4,2,5,4,3,3,2,3,4,4,4,3,4,4,2,4,4,3,3,4,4,3,3,3,4,2,3,3,3,2,2,2,4,4,4,2,2,2,4,3,4,4,2,2,4,4,4,3,4,2,5,4,4,4,2,2
"Oslo",1995,2,4,1,3,2,1,NA,0,2,NA,36.15,35.8,36.5,59.916702270508,87,1,4,1,1,1,NA,4,4,4,2,8,3,7,5,1,NA,1,NA,2,1,1,1,1,NA,1,NA,NA,NA,NA,NA,NA,NA,NA,NA,NA,3,4,5,5,4,4,5,5,5,5,5,5,5,4,2,4,2,2,3,2,4,3,3,3,5,2,3,4,4,1,4,2,1,4,2,4,5,5,4,4,4,2,2,2,2,3,4,3,2,3,3,1,5,2,5,6,2,1,1,1,3,2,3,2,1,1,1,3,2,1,1,2,1,1,1,1,2,2,1,1,2,2,2,5,5,5,5,5,5,2,2,4,3,2,1,3,5,4,4,2,2,2,2,2,2,4,1,1,2,1,1,1,2,2,2,4,5,5,1,2,3,2,4,4,2,5,2,2,4,2,5,4,2,1,2,2,2,2,2,2,4,4,4,2,4,5,5,5,5,5,3,2,1,1,1,2,1,3,2,2,3,1,2,4,4,4,2,5,4,5,3,5,1,4,4,2,3,2,3
"SMU",1995,2,7,2,2,2,2,0,0,2,NA,36.15,36.2,36.1,1.2931060791016,70,26,5,1,2,1,NA,4,4,5,NA,3,3,5,3,1,NA,2,8,1,NA,NA,1,1,NA,1,NA,NA,NA,NA,NA,NA,NA,NA,NA,NA,4,4,3,2,4,4,2,3,2,2,4,3,5,3,4,4,2,3,2,3,4,4,3,3,5,2,4,2,2,2,4,4,4,4,4,2,3,4,4,3,4,2,1,2,2,3,4,5,4,4,4,3,5,4,3,4,5,3,3,3,3,3,5,4,3,3,3,5,3,3,3,3,3,3,3,3,3,4,3,5,4,3,4,4,4,4,4,4,4,4,4,4,6,5,5,5,6,6,6,2,4,2,3,3,2,2,3,3,3,2,1,2,2,2,3,5,7,6,7,7,7,7,2,4,4,2,2,2,4,4,2,4,4,2,4,4,4,4,3,1,2,2,4,3,3,4,3,4,3,4,4,3,2,2,4,2,4,4,4,2,2,3,4,4,4,4,2,2,4,4,4,4,2,4,4,4,2,4,4
"Oslo",1995,2,7,1,5,2,1,0,2,2,NA,36.15,35.9,36.4,59.912704467773,87,-3,4,1,1,1,NA,4,4,4,1,4,4,8,4,1,NA,2,5,3,1,8,1,1,NA,1,NA,NA,NA,NA,NA,NA,NA,NA,NA,NA,3,4,4,4,2,3,4,4,2,3,3,3,4,2,3,4,2,1,3,2,3,2,2,4,5,2,4,3,4,3,4,4,2,4,2,5,4,4,4,4,2,2,3,3,2,2,4,1,1,1,1,1,1,1,1,1,1,1,1,1,1,1,4,3,1,1,1,1,1,1,1,1,1,7,1,1,1,1,1,1,1,1,1,5,5,5,5,5,3,2,4,4,3,5,5,5,6,5,4,4,3,1,3,3,4,4,1,1,3,1,2,1,2,3,2,4,5,6,2,5,3,4,1,2,2,5,4,5,2,2,4,3,2,1,2,3,5,3,4,3,3,3,3,3,3,4,4,5,4,4,4,3,1,1,1,4,5,4,3,4,3,2,3,4,4,5,1,4,3,4,3,5,2,5,5,5,5,5,3
"METU",1995,2,7,1,3,2,1,NA,NA,1,15,36.15,36,36.3,39.911697387695,69,6,3,2,4,1,NA,4,2,4,1,6,5,5,3,1,NA,2,8,1,NA,NA,1,1,NA,1,NA,NA,NA,NA,NA,NA,NA,NA,NA,NA,2,2,2,3,2,2,2,1,2,3,4,2,3,3,3,3,3,3,3,3,3,3,3,3,3,2,3,4,4,4,4,4,2,4,1,4,5,5,5,5,5,5,5,4,1,4,5,3,3,2,3,6,6,5,2,3,4,7,3,4,2,2,6,5,3,4,4,2,2,2,1,1,2,2,2,1,2,2,2,2,2,2,5,5,5,5,5,5,4,2,5,3,6,5,5,4,4,4,4,3,3,1,4,3,1,4,4,4,3,2,2,2,3,4,1,5,8,6,1,5,1,2,2,4,2,4,4,4,4,2,3,4,1,2,1,3,5,1,5,2,2,4,4,4,4,3,4,5,4,2,4,4,2,2,2,2,3,2,2,2,2,2,2,4,2,4,2,4,2,4,3,4,2,4,4,3,4,2,3
"Oslo",1995,2,6,2,2,2,1,2,1,2,NA,36.15,36.2,36.1,59.912704467773,78,-1,4,1,2,1,NA,4,4,5,NA,4,2,5,5,1,NA,2,8,1,NA,NA,1,1,NA,1,NA,NA,NA,NA,NA,NA,NA,NA,NA,NA,2,2,3,2,2,4,1,4,3,3,4,2,5,4,2,4,2,2,2,3,4,2,2,4,5,2,4,4,4,2,4,3,4,4,4,3,4,4,4,4,4,2,2,2,4,3,4,4,3,5,5,5,4,2,5,6,2,5,3,3,1,5,3,3,2,5,3,6,6,5,5,5,6,6,5,4,3,5,5,5,6,4,5,4,4,4,4,4,3,3,2,4,3,5,4,5,3,3,2,2,1,1,1,2,3,3,2,1,2,1,2,2,1,3,2,4,6,3,2,2,4,4,2,2,2,5,2,1,1,2,5,4,4,1,2,5,5,3,5,4,1,2,4,3,4,2,2,3,4,4,3,4,3,4,3,4,4,4,4,1,3,3,4,2,3,2,2,4,4,4,2,4,2,2,2,4,4,1,5
"SMU",1995,2,4,1,3,2,1,2,0,2,NA,36.15,36.1,36.2,1.2931060791016,70,26,5,1,2,1,NA,4,4,4,2,1,NA,4,3,1,NA,2,8,3,1,5,2,2,6,1,NA,NA,NA,NA,NA,NA,NA,NA,NA,NA,2,4,1,4,4,5,1,4,2,3,4,5,4,4,5,5,4,3,2,3,4,4,3,5,5,3,3,4,4,2,5,3,4,5,2,4,4,4,4,4,4,2,2,4,2,3,4,7,6,7,6,4,7,6,4,6,5,6,4,4,2,4,7,6,5,3,2,4,2,3,4,2,3,3,2,3,2,2,2,4,4,3,6,4,2,4,4,3,3,2,2,3,4,4,5,5,3,3,4,5,4,4,3,5,5,4,2,2,4,5,2,3,2,3,2,3,4,3,2,3,2,2,2,4,4,2,1,4,1,2,2,5,3,2,5,5,4,4,4,4,3,2,3,4,4,5,4,5,4,3,5,2,1,1,3,2,2,4,4,3,2,3,4,4,4,4,2,3,4,4,3,3,2,3,4,3,3,2,2
"UCSB",1995,2,4,2,2,2,1,0,0,2,NA,36.19444444,36.05555556,36.33333333,34.4329071,81,12.22222222,5,1,2,1,NA,4,4,5,NA,1,NA,4,4,1,NA,2,8,1,NA,NA,8,1,NA,2,"Greek Organization",NA,NA,NA,NA,100,NA,NA,NA,NA,4,5,4,5,4,4,4,2,2,5,5,5,4,1,2,5,1,1,1,3,3,2,1,1,4,2,2,1,4,2,4,1,1,1,1,1,1,1,1,4,1,1,1,1,1,1,4,1,1,1,1,1,2,1,2,1,2,1,1,2,1,1,1,1,2,2,2,2,1,2,1,6,2,2,1,3,3,2,1,2,2,1,2,5,5,5,5,5,5,5,5,5,4,4,5,3,6,5,6,1,2,1,2,2,1,4,2,2,1,2,2,1,2,4,2,3,4,4,4,4,4,4,4,4,5,1,1,1,5,4,1,5,5,5,5,5,1,5,1,1,3,2,4,4,4,5,2,4,3,4,2,2,2,2,3,1,4,5,4,1,1,2,5,1,5,3,5,4,4,2,4,1,2,1,1,1,1,4,1
"VCU",1995,2,7,2,3,2,1,1,4,2,NA,36.19444444,35.88888889,36.5,NA,85,12.77777778,5,1,2,1,NA,4,4,5,NA,2,2,8,8,1,NA,2,7,3,1,8,1,2,6,2,"Zeta Tau Alpha","Be the Match","College Republicans",NA,NA,20,5,4,NA,NA,3,1,4,2,2,4,1,3,3,1,4,4,3,2,2,4,4,3,3,3,3,3,4,3,4,3,3,3,4,4,4,2,2,3,4,4,4,3,4,4,1,1,1,1,1,1,1,7,4,3,7,2,4,1,7,7,5,7,4,7,1,7,2,7,1,4,4,7,4,4,5,5,4,6,6,4,7,5,7,6,7,4,2,4,4,4,4,4,4,4,4,4,4,6,6,6,6,6,6,1,1,1,1,3,1,1,1,1,1,1,4,5,5,1,5,3,4,4,2,2,3,2,3,5,5,1,1,2,4,4,2,5,1,5,5,5,1,4,3,3,1,1,4,5,5,1,3,5,5,4,1,1,1,1,1,1,1,3,2,2,3,4,1,5,2,1,5,5,5,1,4,1,4,4,4,1,1,3,5
"Serbia",1995,2,7,2,3,2,1,0,0,2,NA,36.2,36.1,36.3,44.818603515625,65,2,6,1,2,1,NA,4,4,5,NA,8,8,6,4,1,NA,2,8,1,NA,NA,1,2,4,1,NA,NA,NA,NA,NA,NA,NA,NA,NA,NA,5,5,4,5,5,5,4,4,5,5,5,4,5,1,3,4,2,1,1,2,2,2,2,2,5,2,3,1,1,1,1,1,1,1,1,1,1,1,1,1,1,1,1,1,1,1,1,1,1,1,1,1,1,1,1,1,1,1,1,1,2,1,1,1,1,4,4,7,4,5,5,2,4,5,3,4,4,4,4,7,7,NA,3,3,3,4,4,4,2,2,3,3,1,2,2,2,3,2,2,1,1,1,1,1,1,2,1,2,1,1,2,2,2,1,1,5,6,6,1,7,1,7,3,3,5,2,1,1,1,1,1,5,2,1,3,2,4,4,5,4,4,5,5,2,2,2,1,1,4,3,2,1,4,1,1,1,1,5,3,5,3,2,3,5,2,1,4,4,2,1,1,4,3,5,2,3,2,3,5
"SMU",1995,2,7,2,4,2,1,4,0,2,NA,36.2,36.3,36.1,1.2931060791016,70,27,5,1,2,1,NA,4,4,5,NA,3,1,8,4,1,NA,2,8,1,NA,NA,1,2,3,1,NA,NA,NA,NA,NA,NA,NA,NA,NA,NA,2,2,2,4,2,4,4,3,2,4,4,2,2,3,2,4,2,4,2,4,2,2,2,2,4,3,4,1,1,1,1,1,4,1,2,1,3,1,1,1,1,1,1,1,1,3,1,6,6,3,6,6,6,3,6,5,3,2,3,3,3,6,6,6,3,3,2,6,2,6,3,3,2,4,2,2,4,2,6,2,2,2,4,5,5,5,5,5,3,3,5,5,6,5,4,4,5,4,4,2,4,2,2,2,2,2,3,2,2,2,2,3,2,2,2,4,3,4,3,3,3,3,2,4,4,2,1,3,4,2,4,4,2,2,5,5,5,5,2,2,2,2,5,5,4,5,3,4,4,4,4,4,2,2,2,4,2,2,2,4,3,4,2,4,2,4,4,4,4,2,4,4,2,4,4,4,4,2,4
"Oxford",1995,2,4,2,2,2,1,0,0,2,NA,36.2,35.8,36.6,51.75,88,-2.222222222,5,1,2,1,NA,4,4,3,1,1,NA,7,6,2,1,2,8,1,NA,NA,1,1,NA,1,NA,NA,NA,NA,NA,NA,NA,NA,NA,NA,3,2,1,4,5,1,2,3,2,3,4,5,4,4,3,4,3,3,2,3,3,2,3,2,5,2,4,2,2,3,2,4,2,1,2,1,4,3,2,3,1,1,2,1,1,2,2,6,2,4,3,6,3,2,6,3,2,4,2,4,2,5,6,5,2,5,4,5,4,4,5,5,3,5,2,3,3,2,6,3,4,4,4,5,5,5,5,5,3,4,4,3,3,5,4,4,3,3,3,2,2,3,2,2,1,2,2,4,2,1,3,2,3,3,3,2,2,2,1,1,2,2,4,4,4,2,1,1,3,4,2,5,4,2,5,3,3,4,4,4,2,3,5,4,2,3,2,3,3,3,3,3,2,2,3,2,5,4,2,2,2,4,5,4,3,2,5,3,4,2,1,2,5,3,2,2,3,1,5
"SMU",1995,2,4,1,4,2,1,4,0,2,NA,36.2,36.2,36.2,1.2931060791016,71,26,5,1,2,1,NA,4,4,5,NA,7,3,8,7,1,NA,2,5,1,NA,NA,5,1,NA,1,NA,NA,NA,NA,NA,NA,NA,NA,NA,NA,4,3,3,4,4,4,3,3,4,4,3,4,4,2,3,2,3,3,2,2,2,2,2,3,4,2,2,3,4,3,4,2,2,3,2,2,4,4,4,4,4,2,2,3,3,3,4,2,2,2,2,4,3,2,2,2,2,2,2,2,2,2,4,4,2,2,2,3,2,2,2,2,2,2,2,3,2,2,2,3,3,2,2,4,4,4,4,5,4,2,4,4,4,5,5,5,5,5,5,2,2,2,2,2,2,2,2,2,2,2,2,2,2,3,2,3,4,4,2,2,2,3,4,2,4,3,2,4,3,3,3,4,2,2,3,2,2,4,2,3,3,4,3,2,4,3,3,4,4,4,4,4,1,1,2,3,3,4,4,3,2,4,3,3,4,3,2,4,4,4,4,4,2,3,3,3,3,3,2
"Serbia",1995,2,6,1,3,2,1,0,2,1,15,36.2,36.2,36.2,45.360595703125,44,12,6,1,2,1,NA,4,2,5,NA,4,4,4,4,1,NA,2,6,1,NA,NA,2,1,NA,1,NA,NA,NA,NA,NA,NA,NA,NA,NA,NA,3,3,2,4,4,4,2,2,2,3,3,4,3,3,3,4,2,4,2,4,3,2,2,3,5,4,4,3,3,2,4,2,3,3,3,4,5,4,4,3,4,2,3,3,2,2,4,5,3,3,5,8,2,5,5,4,1,5,2,2,1,3,8,5,1,1,1,2,1,1,1,1,3,NA,1,1,NA,NA,1,3,4,1,NA,5,5,5,5,5,4,4,4,4,6,3,5,3,6,6,6,2,2,1,3,3,2,2,2,2,2,3,2,2,2,2,2,5,7,6,5,6,5,6,3,1,3,5,2,2,2,1,4,5,4,5,2,2,4,5,4,5,3,5,4,3,5,4,1,2,1,3,4,4,3,4,1,2,4,3,3,3,3,3,2,5,2,2,2,4,4,5,4,4,2,5,5,3,2,1,5
"Tsinghua",1995,2,7,1,3,2,1,0,0,2,0,36.2,36.2,36.2,NA,70,14,7,3,2,1,0,4,4,5,0,2,1,6,5,1,1,2,4,1,1,3,1,2,1,2,"Êé·¨Ð­»á","ÇàÄêÖ¾Ô¸ÕßÐ­»á",NA,NA,NA,1,3,0,0,0,3,3,3,4,5,5,1,4,3,4,4,2,2,1,2,3,1,2,1,2,3,1,3,1,5,3,2,3,4,2,3,3,4,2,4,3,4,4,3,3,3,3,2,2,2,2,2,2,3,2,2,6,2,4,5,1,2,1,2,3,2,5,2,5,2,3,2,2,5,2,6,3,2,2,2,2,5,2,6,3,5,3,3,4,4,4,4,4,5,1,5,5,5,4,4,6,5,5,4,2,2,4,3,3,2,3,2,4,2,2,4,3,2,3,2,3,5,4,2,2,2,2,4,4,2,4,2,4,2,2,4,4,3,4,2,4,4,2,3,4,1,1,2,1,3,1,1,4,5,2,4,4,2,2,2,2,2,2,3,2,2,2,4,4,4,3,2,4,4,2,2,4,2,3,4,3,4,2,3
"Tsinghua",1995,2,1,2,2,2,1,2,0,2,0,36.2,36.2,36.2,30.580093383789,86,19,7,3,2,1,0,4,4,5,0,1,0,8,6,1,1,2,4,3,1,2,1,2,8,1,"±ÈÈü×é¶Ó",NA,NA,NA,NA,4,NA,NA,NA,NA,2,2,2,2,4,3,1,3,2,3,3,2,2,2,3,4,3,3,3,3,3,3,3,3,3,4,2,2,2,3,4,4,4,3,4,4,4,4,4,4,4,3,4,4,3,4,4,4,4,4,5,4,4,5,4,4,3,4,4,4,3,4,5,5,4,5,3,4,4,5,5,4,4,4,3,4,5,4,4,4,3,3,4,4,4,4,4,4,4,4,4,4,3,4,4,4,4,4,4,3,3,2,3,2,3,3,4,2,2,2,3,3,2,3,3,5,7,7,7,7,7,7,4,4,4,4,2,2,4,4,4,4,3,3,3,4,4,4,4,4,3,2,3,3,3,3,2,3,4,3,3,3,3,3,3,3,2,3,3,3,4,2,3,2,3,3,3,3,4,2,2,4,3,3,4,4,4,4,4
"Serbia",1995,2,6,2,3,2,1,0,0,2,NA,36.2,36.2,36.2,44.818603515625,56,6,6,1,2,1,NA,2,2,5,NA,3,3,4,4,1,NA,2,8,1,NA,NA,2,1,NA,1,NA,NA,NA,NA,NA,NA,NA,NA,NA,NA,3,3,1,2,3,4,1,2,2,1,2,3,4,4,5,4,3,3,4,3,3,3,3,4,4,3,4,4,4,4,4,4,4,2,2,4,4,4,4,4,4,2,4,4,1,2,4,8,5,5,8,8,8,5,8,5,2,3,4,4,4,8,4,7,2,5,3,2,NA,3,5,5,6,6,NA,NA,3,NA,5,NA,NA,3,6,5,5,5,5,5,3,2,2,1,3,2,4,2,3,2,2,2,2,1,2,2,1,3,2,2,2,2,1,1,1,2,1,3,2,1,1,2,2,1,2,2,2,5,4,4,2,3,4,2,2,1,2,2,4,4,4,4,4,3,4,2,4,4,2,2,1,2,4,4,2,2,2,4,4,2,4,2,2,4,5,2,4,2,2,4,5,2,2,4,4,4,2,2,4,1,4
"VCU",1995,2,4,2,3,2,1,6,0,2,NA,36.22333333,36.16666667,36.28,NA,74,8.888888889,5,1,2,1,NA,4,4,5,NA,3,1,6,6,1,NA,2,6,3,1,1,1,1,NA,1,NA,NA,NA,NA,NA,NA,NA,NA,NA,NA,2,3,2,3,2,2,3,1,2,2,2,3,2,2,3,4,2,3,2,3,4,3,3,3,3,3,3,3,4,4,4,2,2,1,4,4,4,4,4,4,2,2,3,2,2,5,4,3,3,5,5,5,5,6,5,6,3,4,5,5,5,5,2,6,2,5,3,5,5,5,6,5,5,3,3,2,3,5,6,5,3,2,3,4,2,4,2,2,2,2,3,3,6,4,4,4,5,5,5,2,4,1,3,2,2,2,2,2,4,4,4,4,2,2,2,5,8,5,4,4,3,4,2,4,4,4,2,2,4,2,2,4,4,4,4,4,3,4,2,4,2,2,2,4,5,4,4,4,3,5,4,2,2,4,4,1,4,2,2,2,2,2,2,2,4,4,4,4,3,5,4,4,1,4,4,3,2,2,1
"METU",1995,2,7,1,4,2,1,NA,NA,1,5,36.25,36.3,36.2,39.911697387695,69,6,3,2,2,1,NA,4,2,5,NA,3,2,4,3,1,NA,2,8,1,NA,NA,1,1,NA,2,"??renci toplulu?u",NA,NA,NA,NA,3,NA,NA,NA,NA,4,4,4,5,3,2,4,2,4,4,4,3,2,3,4,4,2,2,2,2,3,3,2,2,5,3,2,2,3,2,4,4,1,2,4,4,2,4,2,5,3,3,4,1,4,3,1,6,5,2,2,3,6,6,2,6,6,5,4,2,2,1,7,1,2,3,2,7,2,2,1,2,2,2,1,1,2,2,2,7,7,2,2,5,5,5,5,5,5,5,5,5,7,7,6,5,6,4,6,2,2,1,3,2,1,1,3,1,1,3,2,2,2,2,4,4,5,3,2,2,3,3,2,2,5,4,1,1,5,1,1,5,5,5,5,5,3,4,3,1,3,2,3,3,5,5,5,5,5,2,5,5,1,2,1,1,5,5,5,5,1,1,5,5,1,5,3,3,5,5,5,5,2,5,3,2,3,4,5
"Serbia",1995,2,7,1,3,2,1,1,1,2,NA,36.25,36.1,36.4,44.818603515625,95,6,6,1,2,1,NA,4,4,5,NA,2,2,5,5,1,NA,2,7,1,NA,NA,1,1,NA,1,NA,NA,NA,NA,NA,NA,NA,NA,NA,NA,4,2,4,4,4,5,2,1,2,3,4,3,2,4,4,3,2,3,2,2,4,3,3,5,4,3,3,3,2,2,3,2,4,3,4,4,4,2,4,2,3,2,2,2,2,2,3,5,5,8,5,5,3,5,5,5,3,6,3,8,8,5,5,8,2,2,NA,2,NA,2,5,5,NA,NA,1,1,NA,1,5,4,NA,1,4,5,5,5,5,5,5,5,4,5,2,4,5,4,4,3,4,2,2,2,3,2,2,4,2,1,3,2,2,1,1,2,1,5,7,6,4,3,3,5,2,2,2,5,4,4,2,2,2,3,2,2,4,4,4,4,3,5,5,4,3,3,4,3,2,2,1,3,2,2,2,4,2,4,4,4,4,2,2,4,4,2,4,4,2,4,4,4,4,4,2,4,4,4,3,2,5
"SMU",1995,2,7,2,4,2,1,2,0,2,NA,36.25,36.1,36.4,1.2931060791016,70,26,5,1,2,1,NA,4,4,5,NA,1,NA,5,5,1,NA,2,8,1,NA,NA,1,1,NA,1,NA,NA,NA,NA,NA,NA,NA,NA,NA,NA,2,1,2,4,3,3,1,2,1,3,4,2,2,4,3,3,2,3,2,2,3,2,3,2,4,4,3,4,4,1,4,4,4,3,2,2,4,3,4,2,4,2,4,3,3,2,4,4,4,4,4,6,5,4,4,3,5,2,4,4,2,6,5,5,3,6,3,6,3,5,5,5,3,3,3,3,3,3,4,3,3,3,3,5,4,4,5,5,4,4,4,4,4,5,3,4,5,5,5,3,4,2,3,1,4,4,5,3,3,2,2,4,2,3,3,5,5,4,2,2,2,3,3,4,5,2,2,3,4,4,3,5,4,2,5,5,5,4,4,3,3,4,4,4,4,4,4,4,4,4,3,3,3,4,3,2,2,4,4,4,3,3,4,4,4,2,2,3,4,2,2,4,4,4,3,4,3,2,4
"METU",1995,1,6,1,4,2,1,7,0,1,5,36.25,36.2,36.3,39.911697387695,60,9,3,2,2,1,NA,4,4,4,1,5,3,8,6,1,NA,2,6,3,1,2,1,1,NA,2,"Sosyal Demokrasi Toplulu?u","THBT",NA,NA,NA,2,3,NA,NA,NA,5,5,3,4,4,4,5,3,4,5,3,4,2,1,3,1,4,2,2,2,2,2,2,4,2,4,2,4,4,4,2,3,1,2,4,5,4,4,4,4,4,2,2,1,2,2,4,5,2,3,3,6,3,5,2,6,1,5,1,5,1,2,7,1,4,2,2,6,2,1,2,1,2,1,2,2,1,2,1,3,3,3,3,2,2,2,4,2,1,2,1,1,4,5,4,5,5,5,4,1,2,1,2,2,1,2,2,2,1,3,1,2,2,2,4,4,4,3,2,4,4,2,5,2,5,4,1,1,4,5,1,5,4,5,5,5,1,4,3,4,2,4,3,5,4,4,5,5,3,2,4,3,1,4,2,1,4,5,4,4,2,5,2,4,5,1,4,4,4,1,1,4,1,4,5,3,1,1,1
"Oslo",1995,2,7,1,3,2,1,1,3,2,NA,36.25,36.3,36.2,59.916702270508,87,1,4,1,1,1,NA,4,4,4,1,5,3,5,4,2,1,2,3,3,1,1,1,1,NA,2,"Bibelgruppe",NA,NA,NA,NA,2,0,0,0,0,2,3,3,4,4,3,3,4,2,2,4,3,3,2,2,2,2,2,2,2,3,3,1,2,4,2,2,3,3,2,4,3,3,4,4,4,4,4,4,5,3,3,3,3,2,2,3,2,2,1,3,6,2,5,2,2,2,3,3,1,2,2,4,5,2,2,1,3,2,2,2,2,2,6,2,1,1,1,2,2,2,1,3,4,4,4,4,4,3,4,4,4,5,1,3,2,4,3,4,2,3,2,2,2,2,4,2,1,2,3,2,2,2,3,2,4,5,5,2,3,4,4,3,3,2,4,4,3,4,3,3,4,4,1,2,3,3,2,2,3,4,4,4,2,4,4,4,4,3,4,4,4,2,2,1,4,4,3,3,2,2,3,4,4,4,3,2,4,4,4,4,4,2,2,4,4,3,2,2
"Tsinghua",1995,2,7,1,4,2,1,0,0,2,0,36.25,36.4,36.1,30.666702270508,69,8,7,3,2,1,0,4,4,4,1,3,3,3,2,1,1,2,8,1,1,3,3,2,1,1,NA,NA,NA,NA,NA,NA,NA,NA,NA,NA,5,4,4,5,3,4,1,3,4,5,5,3,5,3,3,4,2,2,2,3,3,2,2,3,4,3,3,4,4,2,3,3,4,4,3,3,4,3,2,2,2,3,1,3,2,1,2,6,5,6,6,5,6,6,4,4,5,3,6,4,4,6,4,4,5,6,3,4,2,4,5,6,3,3,2,2,3,3,4,2,2,3,4,4,4,3,4,5,5,4,4,4,3,2,4,3,3,3,3,4,2,4,2,4,5,4,4,4,5,4,2,3,1,3,1,3,2,2,2,2,2,2,2,4,4,4,3,4,2,3,4,4,2,1,4,2,2,2,3,2,3,3,4,4,4,4,4,4,4,4,4,4,4,4,3,4,2,4,4,4,3,4,4,4,4,4,4,4,4,4,4,4,4,2,2,3,4,4,3
"VCU",1995,2,7,2,3,2,1,6,0,2,NA,36.25,36.16666667,36.33333333,37.442596435547,58,13.88888889,5,1,2,1,NA,4,4,5,NA,8,3,3,1,2,5,2,1,3,1,6,1,1,NA,1,NA,NA,NA,NA,NA,NA,NA,NA,NA,NA,3,4,4,5,4,3,4,3,3,2,3,4,5,2,3,4,3,2,2,3,2,2,3,3,4,4,2,4,4,2,4,4,2,4,4,4,4,4,3,4,4,4,3,4,2,4,4,2,2,2,2,2,5,3,2,3,1,2,4,3,3,5,2,5,3,2,3,5,5,3,3,2,4,4,4,2,4,3,3,5,5,3,4,4,4,4,4,4,4,3,4,4,3,4,3,3,3,3,3,2,2,2,2,2,2,4,2,2,3,2,3,3,2,2,2,4,4,2,2,2,4,4,2,4,4,4,2,2,4,3,4,4,4,2,4,4,4,4,4,4,2,2,4,4,3,2,2,3,4,4,3,4,3,3,3,3,4,4,4,3,4,4,4,4,3,2,3,4,4,3,2,3,2,4,2,4,2,2,4
"METU",1995,1,4,1,3,2,1,6,4,2,NA,36.25,36.2,36.3,39.911697387695,60,9,3,2,1,1,NA,4,2,4,1,3,3,6,4,1,NA,2,8,1,NA,NA,1,1,NA,1,NA,NA,NA,NA,NA,NA,NA,NA,NA,NA,4,4,4,2,2,3,2,3,2,3,4,2,2,3,2,2,3,4,2,2,2,4,3,3,3,2,2,4,4,4,4,4,4,3,2,3,3,3,1,2,1,1,1,1,1,1,2,2,4,4,2,5,3,4,4,2,4,3,3,3,2,2,3,3,3,5,3,3,3,2,3,3,3,3,3,2,3,2,2,4,5,3,3,4,4,4,4,4,4,4,4,4,5,4,3,4,3,3,3,2,4,2,3,3,3,4,3,3,3,2,2,3,3,3,3,2,2,2,2,2,2,2,3,3,4,4,4,3,3,3,3,4,2,3,4,4,4,3,2,4,4,4,4,4,3,4,4,4,4,3,4,4,2,2,3,3,2,5,4,4,3,3,5,4,4,4,2,4,3,4,4,3,2,3,3,3,3,2,2
"SMU",1995,2,6,2,4,2,1,0,5,2,NA,36.25,36.1,36.4,1.2931060791016,71,26,5,1,2,1,NA,4,1,5,NA,5,4,5,5,1,NA,2,8,1,NA,NA,1,1,NA,2,"International Connection",NA,NA,NA,NA,10,NA,NA,NA,NA,2,2,4,3,2,4,2,3,2,2,3,4,3,5,4,4,3,3,3,3,4,2,4,4,4,2,4,4,5,2,4,4,2,5,3,4,3,2,2,3,2,3,4,3,2,4,2,6,2,6,2,6,5,6,6,5,2,2,6,3,2,2,6,6,2,5,2,2,2,2,2,6,3,3,3,2,6,2,2,2,2,2,5,5,5,5,5,5,5,4,4,4,4,4,5,5,5,5,5,3,4,2,4,2,2,2,2,2,4,2,2,2,2,4,4,1,2,5,3,2,2,2,2,4,4,2,1,3,2,2,3,4,2,1,4,4,4,4,3,3,2,2,4,3,3,2,2,4,4,3,3,3,3,3,3,2,2,2,4,2,4,4,4,4,4,2,3,3,4,2,2,2,2,3,2,3,3,2,2
"METU",1995,2,6,1,4,2,1,10,4,2,NA,36.25,36.2,36.3,39.911697387695,69,6,3,2,2,1,NA,4,4,4,1,8,8,8,7,1,NA,2,6,1,NA,NA,8,1,NA,1,NA,NA,NA,NA,NA,NA,NA,NA,NA,NA,4,5,3,4,2,3,2,3,2,4,5,2,3,2,2,3,2,2,2,2,2,2,2,3,4,2,3,2,4,4,4,4,3,4,4,4,4,4,4,4,4,2,2,2,4,4,4,6,1,1,2,6,2,1,2,1,1,5,1,1,1,1,5,3,1,2,2,2,2,5,1,2,2,2,2,1,6,1,2,2,2,1,1,5,5,5,5,5,5,5,5,5,5,6,6,6,5,4,4,2,2,2,2,2,2,2,2,3,1,2,2,4,2,3,2,4,5,5,2,4,2,1,4,1,4,4,2,2,4,3,2,5,4,2,4,4,4,4,2,2,3,4,4,2,4,4,4,5,5,4,5,5,1,1,4,3,4,4,5,2,2,4,3,4,4,4,2,4,2,4,4,4,2,4,4,4,3,4,2
"Tsinghua",1995,2,7,2,3,2,1,3,0,2,0,36.25,36.3,36.2,39.928894042969,22,8,7,3,2,1,0,4,4,5,0,3,1,8,5,1,1,2,8,1,1,1,1,2,1,2,NA,NA,NA,NA,NA,NA,NA,NA,NA,NA,4,3,4,4,4,4,3,4,3,5,5,4,3,4,4,5,3,2,2,3,3,4,3,1,5,3,4,4,4,2,5,5,5,4,5,4,4,2,4,3,2,2,2,3,2,2,3,7,4,4,5,4,5,4,4,6,6,5,2,5,1,5,7,5,3,1,1,1,2,2,4,1,3,3,2,1,2,1,3,1,1,1,2,4,4,4,4,4,5,5,5,4,7,1,5,7,7,7,7,2,1,4,3,2,4,2,3,2,2,1,2,2,2,3,2,4,5,4,4,4,2,2,1,5,5,5,2,5,4,2,5,5,3,1,3,5,5,2,4,5,1,2,3,5,4,5,3,5,3,2,3,2,1,3,2,4,3,2,2,1,1,2,1,1,4,1,1,4,4,2,4,3,1,3,5,2,2,1,5
"SMU",1995,2,7,1,2,2,1,1,0,2,NA,36.25,36.4,36.1,1.3507995605469,79,26,5,1,2,1,NA,4,2,5,NA,2,2,6,6,2,1,2,8,1,NA,NA,2,2,8,1,NA,NA,NA,NA,NA,NA,NA,NA,NA,NA,2,1,2,5,2,2,2,1,2,2,3,3,5,2,2,4,2,2,1,2,2,2,2,2,4,2,1,5,5,5,5,5,5,5,5,5,5,4,5,4,4,4,2,2,2,4,4,2,2,2,2,3,3,1,2,3,2,2,1,5,3,5,1,2,1,2,2,6,2,5,2,2,2,5,1,1,1,2,5,2,2,2,2,5,5,5,5,5,5,4,5,4,5,5,5,5,5,5,5,2,2,2,2,2,2,2,2,2,2,2,4,2,1,1,1,5,6,6,5,5,6,6,1,4,4,4,1,4,4,4,4,5,4,1,1,4,4,4,1,4,1,1,5,5,4,4,2,5,4,4,5,4,1,1,2,1,1,1,2,4,4,2,3,4,4,4,2,3,4,4,5,4,2,2,2,2,2,2,2
"Kassel",1995,2,6,1,3,2,1,NA,NA,2,NA,36.285,36.29,36.28,51.335998535156,99,3,1,1,1,1,NA,4,1,4,1,8,2,5,2,1,NA,2,8,1,NA,NA,1,1,NA,2,"Fachschaftsrat Psychologie","-","-","-","-",5,NA,NA,NA,NA,2,3,2,4,2,4,3,3,4,4,4,2,5,3,3,3,2,2,1,2,3,2,2,3,4,2,2,4,4,2,4,3,1,3,2,4,2,5,2,5,2,2,3,2,2,3,2,4,1,2,3,5,2,4,3,3,3,2,2,1,1,2,2,2,1,1,1,5,1,2,1,3,2,2,2,1,2,3,2,3,4,3,2,4,4,3,4,4,3,2,4,3,5,4,5,5,4,4,4,1,2,1,2,2,1,2,3,2,2,3,1,2,1,2,1,5,4,5,4,4,2,2,1,2,1,4,4,3,2,2,5,3,2,1,1,3,4,1,4,3,2,4,4,4,3,3,3,5,2,2,5,3,1,3,2,4,3,4,4,2,2,2,2,4,3,2,4,3,5,3,2,3,3,4,3,4,3,2,4
"Serbia",1995,1,3,2,5,2,1,0,0,2,NA,36.3,36.3,36.3,44.97639465332,58,4,6,1,2,1,NA,4,4,5,NA,3,2,5,4,2,1,2,8,1,NA,NA,3,1,NA,1,NA,NA,NA,NA,NA,NA,NA,NA,NA,NA,5,5,5,4,4,4,5,5,5,4,5,3,4,1,4,4,1,1,1,2,2,2,2,5,4,1,3,1,1,1,1,1,1,1,1,1,1,2,2,1,3,1,1,1,2,4,1,2,2,1,5,4,2,8,2,NA,2,NA,4,2,1,2,4,2,2,7,5,7,4,5,3,2,NA,5,6,5,5,6,3,7,7,1,4,5,4,5,5,5,2,3,4,4,5,2,5,5,2,3,2,3,4,1,4,1,1,3,4,5,1,2,2,1,4,5,5,1,1,1,1,1,1,1,5,3,2,5,5,1,5,5,1,1,1,1,2,3,4,4,4,2,2,4,3,3,1,1,1,1,4,1,3,1,1,1,2,1,5,4,5,5,2,2,5,5,4,1,5,3,1,1,4,1,4,1,1,1,1,5,1
"Serbia",1995,2,7,2,3,2,1,0,0,2,NA,36.3,36.3,36.3,44.818603515625,58,4,6,1,2,1,NA,4,4,5,NA,7,4,5,5,1,NA,2,8,1,NA,NA,4,1,NA,1,NA,NA,NA,NA,NA,NA,NA,NA,NA,NA,5,4,4,5,4,4,2,4,3,3,4,4,3,2,4,4,3,2,2,2,3,3,2,3,5,2,4,3,2,1,1,1,1,2,1,2,4,3,4,2,4,2,2,1,3,1,4,3,3,4,4,3,5,4,4,6,2,6,2,2,2,2,2,8,2,3,3,5,3,4,4,4,3,3,NA,3,NA,3,2,5,4,3,NA,4,5,4,5,5,4,3,3,4,5,5,6,5,3,4,3,3,2,1,2,1,2,2,2,3,1,2,3,2,2,2,2,4,5,6,2,5,5,5,2,4,4,3,1,2,2,3,2,5,3,3,4,3,3,2,5,4,4,4,4,4,4,3,1,1,3,4,2,3,4,3,2,2,4,4,4,2,2,3,3,5,4,3,3,4,4,2,4,4,3,4,4,4,2,3,2
"Serbia",1995,2,6,1,3,2,1,1,0,2,NA,36.3,36.2,36.4,44.818603515625,58,4,6,1,2,1,NA,1,NA,4,1,3,3,6,7,1,NA,2,8,1,NA,NA,2,1,NA,1,NA,NA,NA,NA,NA,NA,NA,NA,NA,NA,4,1,2,5,2,3,1,2,2,2,2,3,3,3,3,5,2,2,2,3,4,2,2,5,5,2,3,2,2,3,2,1,2,3,1,4,2,3,2,3,2,2,2,4,4,3,2,3,2,1,2,4,2,5,1,NA,2,6,1,4,2,2,1,3,1,1,NA,5,NA,2,2,2,NA,NA,NA,1,1,NA,2,7,6,1,1,3,2,4,3,1,2,3,3,2,4,4,3,2,5,4,4,2,2,2,2,1,2,2,2,2,2,2,2,2,1,2,1,4,5,6,1,5,4,5,1,3,2,5,4,5,3,2,4,3,3,2,2,2,5,5,4,4,3,5,3,3,4,3,1,3,1,3,4,5,2,4,2,2,2,4,2,5,4,1,2,3,2,3,2,4,4,4,3,3,3,5,3,5,4,3,2
"METU",1995,1,6,1,4,2,1,4,0,2,NA,36.3,36.6,36,39.911697387695,64,6,3,2,2,1,NA,4,2,4,1,8,3,4,3,1,NA,2,8,1,NA,NA,1,1,NA,2,"ODT? Robot Toplulu?u",NA,NA,NA,NA,9,NA,NA,NA,NA,4,5,4,3,3,3,4,1,4,4,4,3,4,2,3,3,2,2,2,2,1,2,2,1,4,2,1,2,4,1,2,2,2,3,1,4,2,2,2,1,1,2,3,2,2,1,2,2,1,1,1,5,2,1,1,2,2,2,4,2,2,1,3,2,1,1,1,2,1,3,1,1,2,1,2,1,3,2,2,2,1,1,3,4,3,3,5,4,5,5,3,4,3,6,6,6,5,5,5,2,2,2,3,2,2,2,2,3,2,2,2,3,2,4,2,3,3,3,1,4,1,1,4,3,2,5,4,2,4,4,2,3,1,5,2,3,3,2,4,4,4,4,4,2,3,4,4,5,4,4,5,5,1,2,1,1,2,4,3,4,2,3,3,5,3,4,2,4,4,5,5,5,2,1,4,2,2,1,4
"Serbia",1995,2,7,1,4,2,1,2,2,2,NA,36.3,36.3,36.3,45.11669921875,42,7,6,1,2,1,NA,4,4,5,NA,3,4,6,6,1,NA,2,8,1,NA,NA,1,1,NA,2,"Gradski hor",NA,NA,NA,NA,5,NA,NA,NA,NA,5,4,3,5,5,5,4,5,5,5,4,4,5,2,3,3,3,2,3,2,3,2,2,3,4,2,2,4,3,2,4,2,2,4,1,4,4,4,2,4,3,2,4,4,2,3,2,4,2,2,8,5,4,2,5,4,5,NA,5,3,1,3,8,4,2,2,NA,8,1,2,2,4,5,3,NA,1,NA,NA,4,6,4,1,3,5,5,5,5,5,5,5,5,5,6,4,5,3,6,5,5,3,4,1,3,1,2,2,2,3,2,2,3,3,2,3,3,5,7,7,1,5,4,5,2,2,2,5,4,4,2,4,3,2,3,2,4,4,1,3,4,5,4,4,4,4,4,4,3,2,1,1,2,4,1,5,2,3,4,4,4,1,1,4,4,4,4,4,1,4,4,4,4,4,1,4,4,3,4,3,4
"Tsinghua",1995,2,7,1,3,2,1,0,0,2,0,36.3,36,36.6,39.928894042969,21,11,7,3,2,1,0,4,4,5,0,4,2,4,4,1,1,2,3,1,1,1,4,2,1,1,"°à¼¶","ËÞÉá",NA,NA,NA,2,3,NA,NA,NA,2,4,4,3,3,3,3,2,4,4,3,3,4,2,2,3,3,3,3,3,2,3,4,3,3,3,2,3,4,2,4,2,2,3,3,4,3,2,4,3,2,3,3,3,3,2,4,5,3,4,5,4,5,4,3,4,2,2,2,2,3,4,3,5,2,4,2,5,3,2,2,3,2,4,2,2,3,2,3,4,5,2,3,4,4,4,4,4,4,4,4,4,6,4,2,6,6,6,6,2,2,1,2,3,2,2,2,3,2,2,2,2,2,3,2,5,8,6,5,6,6,6,4,2,4,4,4,2,2,2,2,4,4,2,4,3,4,3,3,4,1,1,5,5,3,2,3,3,3,3,3,3,4,2,2,2,2,2,1,3,3,4,2,3,3,3,3,4,4,3,3,3,3,3,3,3,3,3,3
"Oxford",1995,2,7,1,3,2,1,0,4,2,NA,36.3,35.9,36.7,51.75,88,-2.222222222,5,1,2,1,NA,4,4,4,1,4,1,8,6,1,NA,2,8,3,1,1,8,1,NA,1,NA,NA,NA,NA,NA,NA,NA,NA,NA,NA,2,2,3,5,3,3,1,1,2,3,3,5,2,2,2,4,3,3,2,3,2,2,2,3,3,3,2,3,4,3,4,1,2,4,2,4,4,2,2,4,2,2,2,2,2,3,2,4,2,1,2,4,2,1,2,3,1,2,2,1,4,1,1,5,1,1,1,1,2,2,1,1,1,1,2,1,1,1,1,2,2,2,1,4,4,4,5,5,5,3,4,4,3,5,5,4,5,3,3,2,4,1,3,2,2,2,2,3,3,2,2,1,2,2,2,5,7,4,5,3,3,6,1,4,2,5,2,4,3,2,4,1,4,1,4,4,4,2,2,4,2,2,4,4,4,5,3,5,3,4,4,2,5,1,3,2,2,3,2,5,2,2,4,4,2,2,2,4,4,4,3,4,3,2,4,2,3,2,4
"Poland",1995,2,7,2,3,2,1,11,5,2,NA,36.3,36.2,36.4,NA,87,1,9,1,2,1,NA,4,2,5,1,2,2,5,5,1,NA,2,8,6,1,8,1,1,NA,1,NA,NA,NA,NA,NA,NA,NA,NA,NA,NA,3,3,4,2,4,2,2,3,3,2,3,2,3,4,3,2,3,3,4,3,3,3,3,4,4,3,2,2,4,3,4,4,4,2,2,3,4,2,4,4,2,2,2,2,2,2,4,2,5,6,6,6,6,6,6,3,6,2,6,7,2,6,7,6,2,6,2,6,2,5,2,2,5,6,2,2,6,6,2,6,6,5,6,2,3,3,4,3,3,2,3,4,6,1,4,5,4,4,6,4,5,2,2,3,3,4,2,2,3,2,2,2,1,2,3,3,3,3,4,3,3,2,4,2,3,5,2,2,2,3,3,5,2,2,3,4,4,2,4,2,4,4,4,4,4,5,5,4,3,5,5,4,4,2,2,2,3,4,2,4,3,3,2,4,2,4,3,2,4,4,4,4,4,2,3,2,2,4,2
"Oslo",1995,2,6,2,4,2,1,NA,NA,2,NA,36.3,36.1,36.5,59.912704467773,87,-3,4,1,2,1,NA,4,4,5,NA,8,4,8,8,2,1,2,8,1,NA,NA,5,1,NA,2,"idrettsgruppe","kollokvie","faddergruppe","-","-",7,4,7,NA,NA,2,3,4,3,2,2,2,2,3,4,3,4,2,3,2,5,3,3,2,3,5,2,3,2,5,3,2,4,3,3,4,3,2,4,2,5,4,4,4,4,4,4,4,4,4,3,4,4,4,4,4,4,3,4,5,4,4,5,4,4,4,3,4,3,4,4,4,5,4,4,3,5,4,4,4,4,4,4,5,4,4,2,4,5,5,5,5,5,5,4,5,5,4,4,4,4,5,4,4,2,2,1,2,2,1,2,3,3,1,2,2,3,1,3,2,5,7,7,2,5,6,5,2,4,3,3,2,4,4,4,5,5,5,1,3,5,5,4,3,4,3,4,2,3,4,4,4,3,4,5,3,4,3,3,3,4,4,4,4,3,2,3,3,4,4,4,2,4,3,4,5,4,2,4,4,4,4,2,4
"Serbia",1995,2,7,1,5,2,1,0,0,1,10,36.3,36.3,36.3,44.818603515625,58,6,6,1,2,1,NA,4,4,5,NA,4,4,6,6,1,NA,2,8,1,NA,NA,1,1,NA,1,NA,NA,NA,NA,NA,NA,NA,NA,NA,NA,4,2,1,5,5,5,2,2,1,3,2,5,4,2,2,3,2,1,1,2,3,1,2,3,5,3,2,5,5,4,3,4,4,3,2,1,5,2,3,2,4,2,2,2,2,2,4,1,1,4,2,2,2,2,1,NA,1,NA,1,1,1,5,1,1,1,1,3,3,1,1,1,1,NA,NA,4,NA,5,NA,1,5,5,NA,NA,4,5,3,5,5,4,1,3,3,3,4,1,2,3,2,3,1,1,1,2,1,1,4,1,2,1,3,5,1,3,3,1,3,3,4,1,2,1,3,5,2,1,5,3,5,3,4,4,5,2,2,2,1,1,1,4,5,3,5,4,4,4,4,1,1,1,2,2,2,5,1,2,1,2,4,3,2,1,1,2,4,3,4,2,3,4,3,4,5,3,4,1,3,2,3,1
"SMU",1995,2,7,2,3,2,1,0,2,2,NA,36.3,36.1,36.5,1.2931060791016,70,26,5,1,2,1,NA,4,4,5,NA,5,5,8,3,2,5,2,5,1,NA,NA,3,1,NA,1,NA,NA,NA,NA,NA,NA,NA,NA,NA,NA,2,3,4,3,4,3,3,3,3,3,3,3,3,3,3,3,3,3,3,3,3,3,3,4,3,3,3,3,4,3,4,3,3,4,4,4,3,3,3,3,3,3,3,3,3,3,3,3,3,3,4,3,3,3,3,5,4,3,3,3,3,3,3,4,4,4,4,3,4,3,4,4,3,3,3,4,3,4,3,3,4,4,4,4,4,4,4,4,4,4,4,4,3,4,4,4,4,4,4,3,3,2,3,3,3,3,3,3,3,3,3,3,3,4,2,3,3,4,2,2,2,2,4,4,4,3,4,4,4,4,4,4,3,3,4,3,3,4,3,3,3,4,4,4,4,3,4,3,4,3,3,4,3,2,3,4,3,4,3,4,2,4,4,4,4,3,3,4,4,4,4,4,3,3,3,3,3,4,4
"METU",1995,1,7,2,2,2,1,2,0,2,NA,36.3,36.3,36.3,39.911697387695,64,2,3,2,2,1,NA,4,4,5,NA,6,5,4,3,2,8,2,8,1,NA,NA,1,1,NA,2,"Dini Topluluk","Siyasi Topluluk",NA,NA,NA,7,7,NA,NA,NA,4,4,4,5,4,4,3,4,4,3,3,4,5,3,3,3,2,3,3,2,2,3,3,4,4,4,2,4,4,4,4,4,2,4,4,4,5,5,5,5,5,2,1,1,4,4,5,6,2,2,5,2,5,6,5,2,6,6,2,1,1,5,5,5,1,3,2,3,3,3,3,3,3,5,2,2,4,2,3,2,3,3,2,5,5,5,5,5,4,4,4,4,6,6,6,6,4,4,4,2,2,4,3,2,2,4,2,3,2,2,1,2,2,4,4,3,3,4,2,2,3,5,2,2,5,4,1,2,5,4,5,5,5,1,5,5,3,5,4,5,1,4,5,5,2,2,4,3,5,2,4,4,2,2,2,2,4,5,5,5,1,2,4,1,4,4,2,2,4,4,4,5,2,1,4,3,2,2,4
"VCU",1995,2,6,2,4,2,1,0,0,2,NA,36.30555556,36.16666667,36.44444444,37.552200317383,97,11.11111111,5,1,2,1,NA,4,4,5,NA,5,5,7,7,1,NA,2,3,3,1,6,5,1,NA,1,NA,NA,NA,NA,NA,NA,NA,NA,NA,NA,2,5,5,4,4,3,4,2,3,5,4,3,5,2,2,3,2,3,2,2,2,1,2,3,5,1,2,2,2,2,3,2,2,2,1,4,2,2,2,2,2,2,2,2,2,2,2,4,3,4,4,4,4,4,2,4,2,4,4,2,4,2,2,4,4,4,4,4,4,4,4,4,4,4,4,4,5,6,5,4,4,4,4,5,5,5,5,5,5,4,3,3,4,2,2,2,3,2,3,4,2,1,4,1,1,2,1,4,2,1,3,4,4,3,4,3,4,2,1,1,4,2,2,4,2,5,5,2,5,4,3,2,2,2,4,2,2,4,2,2,2,2,4,3,4,2,1,3,4,4,3,3,2,2,2,2,5,4,5,3,2,4,4,3,3,1,4,4,4,1,1,3,3,5,3,3,3,3,1
"VCU",1995,2,5,2,4,2,1,0,0,2,NA,36.30555556,36.16666667,36.44444444,37.552200317383,82,11.11111111,5,1,2,1,NA,4,4,5,NA,6,6,6,5,1,NA,2,2,3,1,4,5,1,NA,1,NA,NA,NA,NA,NA,NA,NA,NA,NA,NA,2,4,4,4,4,2,4,2,5,5,2,3,4,2,3,3,3,4,4,3,2,4,3,2,2,3,3,3,2,3,3,2,3,2,2,3,3,3,3,3,3,3,3,3,3,3,3,4,3,4,3,3,5,5,3,4,4,4,5,5,3,4,5,4,3,4,5,4,4,3,5,4,5,4,5,4,6,5,3,4,3,4,3,3,3,4,4,3,3,2,2,2,4,3,3,3,3,3,4,3,3,3,3,3,3,3,3,3,3,3,3,3,3,3,3,2,2,4,1,2,2,2,3,3,3,3,3,3,3,3,3,3,3,3,3,3,3,3,3,3,3,3,3,3,3,3,3,3,3,3,3,3,3,3,3,3,3,3,3,3,3,3,3,3,3,3,3,3,3,3,3,3,3,3,3,3,3,3,3
"VCU",1995,2,7,2,2,2,1,0,0,2,NA,36.30555556,36.22222222,36.38888889,37.552200317383,68,8.888888889,5,1,2,1,NA,4,1,5,NA,2,1,3,2,1,NA,2,5,1,NA,NA,1,2,2,1,NA,NA,NA,NA,NA,NA,NA,NA,NA,NA,1,1,1,2,2,4,1,1,1,1,2,1,3,4,3,3,4,4,3,4,3,3,4,3,5,3,3,4,4,4,4,4,4,4,5,4,4,4,4,4,2,2,2,2,4,4,4,6,6,6,6,4,6,5,6,6,5,5,2,4,6,7,2,6,2,5,5,7,6,6,5,6,6,2,6,4,6,3,6,5,6,6,3,3,3,4,4,3,4,2,3,3,6,3,3,4,7,7,7,4,5,4,5,3,4,4,4,4,4,3,1,1,2,2,3,4,4,4,4,3,5,2,1,3,4,5,3,3,4,2,4,4,2,1,1,2,3,1,4,4,2,2,4,2,3,1,2,3,3,2,3,2,3,4,3,4,4,3,3,5,1,2,4,4,2,2,4,3,4,2,2,4,4,4,3,4,3,2,2
"VCU",1995,2,7,1,4,2,1,2,0,2,NA,36.30666667,36.28,36.33333333,37.552200317383,94,13.33333333,5,1,1,1,NA,4,4,4,4,6,5,6,6,1,NA,2,6,1,NA,NA,1,1,NA,1,NA,NA,NA,NA,NA,NA,NA,NA,NA,NA,3,4,4,2,4,3,4,3,2,4,4,5,5,3,3,3,2,1,2,2,3,2,2,2,4,2,3,3,3,3,3,4,3,3,4,4,4,4,4,4,4,2,2,2,3,2,4,2,2,2,2,2,2,2,2,2,2,2,2,2,4,2,2,2,2,2,1,2,2,2,2,2,2,6,2,2,2,2,2,2,2,1,2,4,4,4,4,4,4,4,4,4,4,6,5,5,5,5,5,3,3,3,2,3,4,3,3,3,4,3,2,3,2,3,2,5,5,6,5,5,6,5,2,4,2,4,4,4,4,4,4,4,2,3,2,4,4,3,3,4,3,3,4,4,4,4,4,4,4,4,4,4,2,2,2,4,2,3,3,2,2,2,2,2,4,4,2,4,4,4,4,4,2,4,3,4,4,2,2
"UCSB",1995,2,7,2,4,2,1,0,0,2,NA,36.33333333,36.27777778,36.38888889,34.4329071,71,7.777777778,5,1,2,1,NA,4,4,5,NA,1,NA,6,5,2,3,2,8,3,8,8,5,1,NA,2,"Rec Cen",NA,NA,NA,NA,60,NA,NA,NA,NA,5,2,4,4,4,2,4,5,4,2,5,4,5,3,4,4,2,2,2,3,3,2,1,3,5,3,3,1,1,1,3,4,1,1,4,1,5,3,4,4,4,1,1,1,1,1,4,6,5,7,7,7,7,5,6,2,6,4,3,4,7,5,7,6,1,4,3,5,2,1,1,1,2,3,4,3,5,3,1,4,5,1,7,4,5,5,5,5,5,4,5,5,7,7,7,6,7,7,6,1,2,1,1,1,1,3,2,4,3,1,1,1,2,1,1,4,6,7,8,4,5,5,4,3,4,4,4,1,3,2,2,4,2,2,2,4,4,2,4,2,4,4,3,1,5,5,5,4,5,5,4,5,4,1,3,3,4,5,5,2,1,4,4,2,5,4,4,2,5,4,4,4,4,5,5,2,4,1,5
"UCSB",1995,2,7,1,5,2,1,4,0,2,NA,36.33333333,35.83333333,36.83333333,34.4329071,69,8.333333333,5,1,2,1,NA,4,4,5,NA,6,4,6,6,2,2,2,8,1,NA,NA,3,1,NA,2,"AXO",NA,NA,NA,NA,7,NA,NA,NA,NA,4,3,4,3,4,1,2,3,2,1,5,5,4,3,3,5,2,2,2,2,2,2,2,3,5,2,3,2,3,2,4,4,4,2,4,4,4,4,4,4,4,1,1,2,2,2,4,5,4,1,2,2,4,4,2,3,1,4,1,2,2,1,1,4,1,2,1,2,1,1,1,1,2,2,1,1,1,1,2,4,4,1,1,5,5,5,5,5,5,5,5,5,3,4,5,4,5,5,5,3,4,2,3,3,2,2,3,2,2,2,2,2,2,2,1,5,5,6,3,3,1,1,1,2,3,5,4,3,3,2,4,2,1,3,1,2,3,1,3,2,1,1,2,4,5,4,3,5,3,4,4,3,1,1,2,1,5,4,4,1,1,3,3,3,4,2,3,4,4,2,4,3,3,2,4,2,3,2,4
"Serbia",1995,2,6,1,4,2,1,NA,NA,2,NA,36.35,36.3,36.4,44.818603515625,95,6,6,1,2,1,NA,4,4,5,NA,3,2,5,5,1,NA,2,8,1,NA,NA,4,1,NA,1,NA,NA,NA,NA,NA,NA,NA,NA,NA,NA,5,5,4,5,5,4,4,2,4,5,4,5,5,2,5,3,2,2,1,3,2,2,2,2,3,2,1,1,1,1,1,1,1,1,1,2,3,1,1,1,1,1,1,1,1,1,1,1,1,1,2,4,1,4,1,1,4,1,2,1,2,1,2,2,1,3,1,8,NA,2,2,2,3,NA,1,1,NA,1,1,6,7,NA,3,4,4,4,5,3,5,4,4,3,5,4,4,2,4,4,4,2,2,1,3,2,1,2,3,3,2,1,2,2,3,4,3,4,5,6,2,6,1,5,3,3,3,5,3,2,2,2,2,5,1,2,2,2,3,3,3,4,4,5,4,4,5,5,1,1,4,3,2,2,2,5,1,2,4,4,4,3,2,2,3,4,3,2,2,3,3,2,3,3,2,3,3,4,3,3,4
"Serbia",1995,2,7,1,2,2,1,0,0,2,NA,36.35,36.3,36.4,44.818603515625,83,4,6,1,2,1,NA,4,4,5,NA,6,6,6,6,1,NA,2,8,1,NA,NA,2,2,8,2,"Crveni krst",NA,NA,NA,NA,8,NA,NA,NA,NA,4,3,1,3,5,4,1,1,4,3,4,4,3,3,3,3,2,2,2,3,3,3,3,5,5,2,3,3,3,2,3,1,2,3,2,3,4,2,3,3,3,1,1,1,1,1,3,5,4,2,4,3,3,5,5,5,2,3,2,2,4,4,4,5,2,4,NA,5,NA,5,2,3,3,NA,NA,NA,6,3,3,6,5,NA,5,4,4,4,5,5,5,3,4,3,4,5,5,5,6,5,6,2,2,1,2,4,2,3,2,2,2,3,2,1,2,1,2,5,4,5,3,3,5,4,1,2,2,5,2,5,3,4,4,4,2,2,3,4,4,3,4,5,5,3,3,3,4,4,2,1,1,1,3,5,2,4,3,3,4,3,3,3,2,3,2,4,3,4,1,4,5,4,3,4,3,4,4,3,3,2,4
"Tsinghua",1995,2,7,1,4,2,1,0,0,2,0,36.35,36.3,36.4,30.666702270508,73,16,7,3,2,1,0,4,4,5,0,3,3,6,4,1,1,2,3,1,1,3,1,2,1,2,"ÇàÄêÖ¾Ô¸ÕßÐ­»á",NA,NA,NA,NA,1,0,0,0,0,4,4,3,4,4,4,1,3,2,3,4,3,2,2,1,2,2,2,1,3,2,2,3,1,2,3,2,3,2,2,3,3,3,2,2,3,4,4,4,3,2,2,2,2,2,2,4,4,5,4,5,4,3,4,5,3,4,4,3,3,3,4,3,4,2,6,2,4,5,4,6,6,3,3,4,2,5,2,6,5,4,5,3,5,5,5,5,5,5,4,4,4,4,3,4,4,3,4,3,2,2,3,2,3,2,3,4,3,2,4,3,2,2,3,2,3,3,4,2,2,2,5,3,4,4,4,2,4,2,2,4,4,4,4,2,4,4,2,4,4,2,2,3,2,4,2,4,4,4,2,4,4,2,2,3,2,2,2,3,2,2,4,4,4,4,3,2,4,4,3,2,3,3,4,4,4,4,2,3
"Tsinghua",1995,1,7,2,4,2,1,38,24,2,0,36.35,36.3,36.4,30.666702270508,91,13,7,3,2,1,0,4,4,5,0,4,1,6,3,1,2,2,8,1,1,8,1,2,1,1,"Ó¢Óï¾ãÀÖ²¿","ÌåÓý²¿",NA,NA,NA,7,7,NA,NA,NA,3,3,3,3,2,5,1,3,1,2,2,3,3,3,5,4,3,3,3,3,5,3,3,4,5,3,5,2,2,1,4,2,1,3,4,4,1,1,1,1,1,1,1,1,1,1,1,2,4,2,5,6,2,5,4,4,5,6,5,2,2,5,3,7,4,4,2,6,2,3,5,6,2,6,2,6,2,4,6,2,5,2,2,5,5,5,5,5,5,5,5,5,3,1,4,7,7,7,7,3,3,3,2,2,4,4,3,4,2,2,1,4,2,4,2,3,6,7,2,3,3,4,1,4,4,4,3,2,2,2,2,4,5,1,3,3,3,4,3,5,2,3,5,5,5,3,3,5,5,5,5,5,4,3,3,2,1,4,4,5,2,4,3,5,4,2,2,4,4,3,3,3,2,4,3,3,3,2,4
"Serbia",1995,2,7,1,5,2,1,8,8,2,NA,36.35,36.2,36.5,45.251693725586,44,12,6,1,2,1,NA,4,4,4,2,1,NA,3,5,2,2,2,8,1,NA,NA,1,1,NA,1,NA,NA,NA,NA,NA,NA,NA,NA,NA,NA,4,4,4,4,4,4,4,2,4,4,4,4,4,2,3,2,3,2,2,2,2,3,2,2,4,2,2,3,3,2,3,3,2,2,2,4,4,4,4,4,4,2,2,2,2,3,4,2,2,2,2,8,3,2,2,NA,2,NA,2,2,2,2,2,2,2,8,3,5,NA,5,2,3,NA,NA,3,3,5,3,3,5,5,NA,NA,4,4,4,5,5,5,5,5,5,5,4,3,3,4,4,4,3,4,2,3,2,3,4,3,3,3,2,2,3,2,3,2,4,4,5,3,4,4,4,3,3,1,5,2,3,3,3,3,5,4,4,2,3,2,4,3,5,4,5,4,3,5,5,1,1,3,3,4,3,3,4,2,4,4,4,4,3,2,3,4,4,4,3,2,4,4,4,3,4,2,4,3,4,4,3,3
"Oslo",1995,2,7,1,3,2,1,NA,NA,2,NA,36.35,36.3,36.4,59.912704467773,76,1,4,1,2,1,NA,2,2,5,NA,6,2,7,7,1,NA,2,8,1,NA,NA,1,1,NA,1,NA,NA,NA,NA,NA,NA,NA,NA,NA,NA,3,3,3,4,2,1,1,2,2,2,2,4,3,3,3,4,2,2,2,3,3,2,2,2,4,3,2,4,3,1,3,1,1,3,4,5,4,3,4,4,3,2,5,5,3,4,4,2,2,1,4,5,3,2,5,1,1,4,2,1,5,1,6,6,3,1,2,5,2,2,1,1,1,2,2,1,3,1,3,1,2,1,2,5,5,4,4,4,3,3,5,5,4,4,4,3,4,3,3,2,2,1,2,1,2,4,1,1,2,1,1,1,1,2,1,4,5,6,2,3,3,1,2,2,1,5,3,5,3,1,4,4,4,1,2,4,3,3,5,4,3,3,3,3,5,5,5,4,4,3,4,4,2,2,2,2,4,3,2,1,2,2,3,2,2,4,1,1,4,4,5,4,1,3,3,3,4,2,2
"METU",1995,2,6,2,3,2,1,1,0,2,NA,36.35,36.6,36.1,39.911697387695,71,8,3,2,4,1,NA,4,4,5,NA,6,2,6,6,1,NA,2,7,1,NA,NA,1,1,NA,2,"ODT? Sualt? Toplulu?u","By Sanat Dans Okulu",NA,NA,NA,3,3,NA,NA,NA,2,4,2,4,3,4,4,2,3,1,4,3,4,3,2,4,4,3,2,3,3,4,3,2,4,3,2,4,3,2,3,2,2,3,2,4,3,4,2,3,4,2,2,3,2,1,4,5,2,1,3,6,6,2,6,1,5,2,5,1,2,1,1,1,2,1,2,1,3,5,2,4,4,2,2,2,2,2,4,2,1,2,3,5,5,3,5,5,5,4,4,4,7,5,4,5,6,5,6,2,2,2,3,4,4,3,3,2,4,2,2,4,3,2,2,3,2,4,1,3,1,2,2,4,3,5,4,2,4,2,4,2,2,2,4,4,4,2,3,5,2,4,3,3,2,5,5,5,5,3,5,5,1,1,1,3,5,4,4,4,4,4,4,4,3,5,2,4,2,5,5,5,2,2,5,3,2,2,2
"METU",1995,2,7,1,4,2,1,0,0,2,NA,36.35,36.4,36.3,39.911697387695,58,7,3,2,2,1,NA,4,4,5,NA,8,2,4,4,1,NA,2,8,1,NA,NA,1,1,NA,1,NA,NA,NA,NA,NA,NA,NA,NA,NA,NA,4,3,2,4,5,4,4,2,2,3,3,3,4,3,3,3,2,3,2,3,3,3,3,3,3,3,3,3,3,2,3,4,2,2,2,4,5,2,4,5,3,1,1,2,1,1,5,2,2,5,2,4,4,3,2,4,2,4,2,2,1,1,5,2,2,2,2,2,2,2,2,2,5,2,2,2,5,2,2,2,3,1,3,5,5,5,5,5,5,5,5,5,3,2,3,4,2,1,1,2,2,1,3,2,3,3,3,2,2,3,2,2,2,2,1,5,6,5,2,4,4,2,2,2,4,4,2,2,3,4,3,5,3,2,4,4,4,4,3,3,4,4,4,3,3,4,4,4,5,3,3,3,2,2,2,2,4,4,3,3,2,4,4,5,4,3,2,4,3,4,3,5,3,4,4,4,3,2,4
"Serbia",1995,2,7,2,3,2,1,0,0,2,NA,36.35,36.4,36.3,44.818603515625,65,2,6,1,2,1,NA,2,2,5,NA,2,2,4,4,1,NA,2,7,1,NA,NA,1,1,NA,1,NA,NA,NA,NA,NA,NA,NA,NA,NA,NA,4,3,5,5,5,5,1,3,5,5,5,5,5,5,5,5,4,4,4,4,4,4,5,5,5,4,5,2,4,1,5,3,3,4,1,4,4,1,4,1,4,1,4,1,4,1,4,4,5,4,7,7,7,2,8,3,1,6,4,8,8,1,8,7,2,1,NA,5,1,2,8,2,NA,1,NA,NA,NA,NA,5,7,7,1,4,5,5,4,5,5,5,5,5,4,5,6,5,5,6,6,5,1,2,5,2,4,5,2,1,2,1,1,3,1,1,3,1,5,3,6,1,3,5,3,2,4,1,5,1,2,2,2,3,4,4,1,1,1,4,5,5,2,2,5,4,2,4,4,2,2,1,2,4,2,1,5,2,2,5,5,5,3,1,4,4,4,4,1,3,5,5,1,1,5,4,5,5,5,2,2,1
"SMU",1995,1,3,1,2,2,2,5,4,2,NA,36.35,36.2,36.5,NA,75,26,5,1,2,1,NA,4,4,5,NA,6,4,3,4,1,NA,2,2,1,NA,NA,1,1,NA,1,NA,NA,NA,NA,NA,NA,NA,NA,NA,NA,3,2,5,3,4,3,4,2,4,3,2,2,2,2,3,4,3,3,4,4,3,3,4,2,2,4,4,3,4,3,3,5,2,4,4,3,4,3,3,2,5,4,3,2,2,4,2,4,2,3,5,3,2,4,3,6,3,5,5,3,4,4,3,6,4,2,4,5,4,5,5,4,3,4,6,2,5,6,3,4,4,3,4,3,2,2,3,2,3,3,5,4,5,4,5,4,4,3,4,2,2,2,3,4,2,3,5,5,1,2,2,4,4,3,5,2,3,4,4,5,2,2,2,3,3,4,3,4,2,2,2,2,4,4,3,4,2,3,3,3,2,2,3,4,3,5,3,3,4,2,2,4,3,3,4,2,2,3,2,3,3,2,3,4,2,2,3,3,2,2,1,4,1,3,3,2,3,4,3
"SMU",1995,2,6,2,3,2,1,2,0,2,NA,36.35,36.2,36.5,1.2931060791016,70,27,5,1,2,1,NA,4,4,5,NA,8,8,6,6,2,1,2,8,1,NA,NA,1,1,NA,1,NA,NA,NA,NA,NA,NA,NA,NA,NA,NA,4,3,4,2,2,4,3,4,3,2,4,3,4,3,4,4,3,3,2,3,4,3,3,4,5,3,5,3,4,3,4,3,3,5,2,4,2,3,3,3,2,2,2,2,2,2,2,4,4,5,4,4,5,3,3,4,3,4,3,4,3,3,3,4,3,5,5,5,5,3,4,4,4,4,4,4,5,4,5,4,5,4,4,5,5,5,5,5,5,5,5,5,6,6,6,6,6,6,5,2,2,2,2,3,3,2,2,2,3,3,1,2,2,4,2,4,6,5,6,6,6,6,3,4,4,3,2,3,5,4,4,2,3,2,4,4,3,4,3,2,4,4,4,3,3,5,4,4,4,4,3,4,3,2,3,2,2,4,3,3,2,4,4,3,4,3,3,4,4,4,4,3,3,5,3,4,4,2,4
"Poland",1995,2,4,2,3,2,1,32,2,2,NA,36.35,36.4,36.3,53.127105712891,81,-2,9,1,2,1,NA,4,2,5,1,4,1,5,3,1,NA,2,7,2,1,1,1,1,NA,2,"blgerki",NA,NA,NA,NA,1,NA,NA,NA,NA,2,4,3,5,4,4,2,2,1,4,1,3,4,2,5,5,4,4,3,4,3,2,4,5,5,4,4,3,5,4,4,4,4,3,1,4,5,5,5,4,4,2,2,2,3,2,5,4,4,3,6,7,5,4,5,7,3,1,2,2,1,5,7,6,1,5,4,6,5,6,5,6,6,3,2,4,6,5,5,7,7,5,4,5,3,5,4,2,4,3,4,4,7,7,6,6,7,6,7,2,2,2,1,2,2,2,1,2,2,1,2,1,2,4,1,4,5,2,2,2,1,1,1,2,1,5,4,4,2,2,4,2,2,1,1,2,1,1,2,4,2,4,5,5,3,4,3,3,4,2,2,4,4,3,3,1,2,5,4,1,1,4,4,2,5,4,2,3,5,1,2,4,4,5,4,5,4,1,4
"Serbia",1995,2,7,1,4,2,1,4,0,1,10,36.4,36.2,36.6,44.818603515625,65,2,6,1,2,1,NA,4,4,5,NA,5,5,7,6,1,NA,2,8,1,NA,NA,3,1,NA,1,NA,NA,NA,NA,NA,NA,NA,NA,NA,NA,3,4,3,5,3,3,2,2,2,4,2,3,4,2,4,3,2,4,2,3,2,3,2,4,4,2,2,2,2,2,2,1,1,2,1,1,4,3,3,3,2,1,2,2,1,1,3,4,2,1,1,4,1,2,2,1,1,1,1,4,4,2,1,5,1,1,1,3,1,4,1,1,4,1,1,1,1,1,1,6,4,1,1,4,4,4,5,5,3,2,4,5,6,6,4,4,7,6,5,1,3,2,3,3,2,2,3,2,2,1,1,2,1,2,1,5,7,7,1,7,7,8,1,5,1,5,3,5,2,2,5,2,1,3,4,3,3,5,3,5,4,5,4,1,4,4,1,1,1,1,2,5,1,4,1,4,4,3,3,3,2,5,3,2,5,4,1,5,5,4,4,5,2,4,3,5,5,3,2
"SMU",1995,2,7,1,3,2,1,2,0,2,NA,36.4,36.4,36.4,1.2931060791016,70,27,5,1,2,1,NA,4,4,5,NA,2,1,4,3,2,1,2,4,1,NA,NA,1,1,NA,1,NA,NA,NA,NA,NA,NA,NA,NA,NA,NA,2,2,1,4,3,2,1,1,1,2,4,5,3,2,3,3,1,2,2,3,3,2,3,2,5,2,3,2,2,1,2,4,1,1,1,2,1,1,1,1,1,1,2,2,1,1,1,5,5,7,7,7,6,1,7,5,2,6,5,6,5,3,7,5,7,4,3,3,2,2,2,3,2,2,3,3,3,3,2,3,3,2,6,5,4,4,5,2,3,3,4,3,5,7,6,6,7,6,6,2,2,1,2,1,1,2,2,2,2,2,2,1,3,2,1,4,6,4,1,1,1,3,4,5,5,1,1,1,4,4,2,5,5,4,5,5,2,5,1,4,4,5,3,4,2,5,5,5,2,3,4,1,1,4,2,4,1,4,2,5,2,4,2,5,2,4,4,3,4,4,5,3,2,4,2,1,1,1,1
"Serbia",1995,2,7,1,4,2,1,3,0,2,NA,36.4,36.4,36.4,44.818603515625,58,4,6,1,2,1,NA,4,4,5,NA,6,4,6,5,1,NA,2,8,1,NA,NA,1,2,3,1,NA,NA,NA,NA,NA,NA,NA,NA,NA,NA,4,3,3,5,3,5,4,4,4,4,5,4,4,2,3,3,2,2,1,2,2,2,2,3,5,2,3,2,3,1,3,1,1,2,2,4,4,3,4,3,3,1,2,3,2,1,2,3,2,2,3,2,3,5,3,NA,3,3,3,2,3,2,2,5,2,3,NA,8,3,3,2,4,3,NA,4,3,5,3,4,7,6,1,NA,5,5,5,5,5,5,3,5,5,2,4,3,2,3,3,3,4,4,3,3,1,2,2,3,3,2,3,4,2,2,2,2,3,3,4,2,2,3,4,2,2,1,4,4,3,4,2,4,4,3,1,2,1,4,3,5,5,4,5,5,4,4,5,1,1,2,2,2,2,1,3,2,2,1,3,4,2,3,2,4,5,3,3,4,5,4,2,3,4,2,4,2,4,4,2,5
"Tsinghua",1995,2,7,2,2,2,1,0,0,2,0,36.4,36.5,36.3,30.580093383789,78,17,7,3,1,2,1,1,2,4,4,6,1,3,1,1,1,1,1,1,1,1,1,2,1,2,NA,NA,NA,NA,NA,NA,NA,NA,NA,NA,4,3,3,4,5,3,1,2,3,3,2,1,4,1,2,1,2,3,1,2,1,2,2,1,2,4,2,4,2,1,4,1,2,3,4,1,5,3,4,3,1,1,1,1,1,1,2,5,5,2,3,4,5,2,2,5,2,3,4,1,1,1,2,1,2,2,2,4,2,1,1,1,2,2,3,5,2,2,2,5,3,2,5,3,3,4,2,4,4,4,3,5,4,1,5,2,5,6,6,4,4,1,4,2,2,4,3,1,4,5,2,3,2,3,1,4,4,4,2,2,1,1,1,5,4,4,1,2,1,2,4,5,2,1,2,4,2,2,2,3,1,1,4,4,3,1,1,4,3,2,4,4,1,1,1,2,4,2,1,1,2,3,4,2,3,2,2,2,4,4,4,3,2,2,3,3,4,3,2
"METU",1995,1,1,2,3,2,1,5,0,1,20,36.4,36.4,36.4,39.911697387695,60,9,3,2,2,1,NA,4,4,5,NA,3,3,4,3,1,NA,2,8,1,NA,NA,1,1,NA,1,NA,NA,NA,NA,NA,NA,NA,NA,NA,NA,5,2,4,3,1,4,3,3,2,4,5,1,5,2,3,3,2,2,2,3,2,2,2,4,4,3,2,2,3,4,3,2,2,4,2,2,3,3,3,3,2,2,2,4,3,4,3,5,3,3,5,7,5,5,4,5,2,4,5,2,5,7,4,2,3,4,5,6,1,3,2,2,1,1,3,2,4,3,2,5,6,1,6,4,2,4,4,3,5,3,4,3,7,4,3,3,4,4,4,2,2,2,2,2,2,2,2,4,2,2,1,1,1,3,1,4,7,5,1,5,7,5,4,2,5,5,2,3,3,4,4,5,4,2,4,5,3,4,2,5,4,4,5,3,4,3,3,4,2,2,4,3,2,4,4,2,5,5,4,5,1,3,4,5,2,2,2,3,3,4,4,2,5,3,1,3,2,2,4
"Tsinghua",1995,2,7,1,2,2,2,0,0,2,0,36.4,36.5,36.3,NA,88,15,7,3,1,1,0,4,4,4,1,4,4,5,4,1,1,2,4,1,1,1,1,2,1,2,NA,NA,NA,NA,NA,NA,NA,NA,NA,NA,1,5,1,5,5,5,1,1,5,1,5,1,1,3,3,3,3,3,3,3,3,3,3,2,4,4,3,2,4,2,4,2,2,2,4,4,4,4,4,4,2,2,3,2,2,3,4,6,2,4,6,6,6,2,3,2,1,6,2,2,2,2,2,2,2,2,2,2,2,2,2,2,1,2,2,4,2,2,2,1,2,4,4,4,4,4,4,4,4,4,4,4,2,2,2,4,4,4,4,3,3,2,3,4,3,4,2,2,4,4,3,4,3,4,2,5,6,7,6,6,6,6,2,2,4,4,2,2,2,4,4,4,4,2,4,4,2,3,4,4,4,4,2,3,4,4,4,4,3,3,4,4,2,2,2,2,3,3,3,3,3,4,4,3,4,2,2,2,4,4,4,4,2,2,4,4,3,2,4
"METU",1995,1,5,1,4,2,1,10,0,1,15,36.4,36.4,36.4,39.911697387695,58,7,3,2,2,1,NA,4,4,4,1,4,4,6,4,1,NA,2,8,2,1,2,1,1,NA,1,NA,NA,NA,NA,NA,NA,NA,NA,NA,NA,3,2,3,4,2,4,2,3,2,2,4,2,4,3,3,4,3,3,2,3,3,3,3,3,4,4,3,3,3,3,4,3,4,3,1,4,4,3,3,4,4,1,2,1,2,2,4,6,1,1,3,4,3,1,2,2,1,1,1,2,1,1,4,1,1,3,3,5,5,4,3,4,4,3,2,3,5,2,4,5,6,2,2,4,4,3,4,4,3,3,2,2,5,7,7,7,7,5,5,3,5,2,5,3,2,5,5,5,5,2,1,2,3,2,2,5,4,2,2,3,2,2,2,2,4,4,3,4,3,3,4,3,4,1,2,4,4,2,4,5,3,3,5,5,3,4,4,4,4,3,4,3,2,3,1,4,5,4,3,5,2,3,4,2,3,4,1,4,3,4,4,4,3,4,3,3,3,2,5
"Oxford",1995,1,6,2,3,2,1,0,0,2,NA,36.4,36.1,36.7,51.75,74,2.777777778,5,1,2,1,NA,4,1,5,NA,1,NA,5,4,1,NA,2,5,1,NA,NA,5,1,NA,1,NA,NA,NA,NA,NA,NA,NA,NA,NA,NA,3,2,2,3,3,4,2,2,2,2,2,3,4,4,3,4,3,3,3,3,3,4,4,3,4,3,2,2,3,2,4,3,3,4,4,4,2,2,2,2,2,2,1,1,1,2,2,6,3,5,6,6,6,3,3,5,2,5,5,3,4,1,2,6,1,2,2,2,2,2,1,2,3,3,1,2,2,1,2,3,1,1,2,1,1,2,1,1,1,1,1,1,7,2,2,2,5,5,5,2,3,3,3,2,2,3,4,2,3,2,2,3,3,2,2,2,2,1,2,2,4,1,5,1,2,5,4,5,2,2,5,3,2,2,1,2,5,2,2,2,2,4,4,5,2,4,3,5,1,2,4,1,2,4,2,4,4,4,4,1,2,4,4,2,3,2,1,4,3,3,2,3,4,5,2,2,4,2,2
"Oxford",1995,1,2,2,3,2,1,1,0,2,NA,36.4,36.2,36.6,51.75,74,2.777777778,5,1,2,1,NA,4,1,5,NA,3,1,8,5,1,NA,2,8,1,NA,NA,4,1,NA,2,"Regional Societies",NA,NA,NA,NA,7,NA,NA,NA,NA,2,4,4,5,4,2,4,2,4,4,2,4,4,4,4,3,2,2,3,2,3,2,1,4,4,2,3,4,4,3,4,2,3,4,3,4,2,2,2,2,2,2,4,2,4,1,2,4,4,4,4,4,4,4,4,4,4,4,4,4,4,4,4,4,4,4,4,4,4,4,4,4,4,4,4,4,4,4,4,4,4,4,4,3,3,4,4,3,3,3,3,3,1,1,1,1,1,1,1,3,3,2,3,2,3,2,3,4,2,3,2,2,2,2,4,4,4,2,1,1,2,1,1,1,5,5,1,1,1,4,2,5,4,2,4,5,2,5,1,1,1,4,4,3,4,3,4,3,1,3,2,2,4,4,4,2,2,3,4,3,3,2,3,4,3,2,3,3,3,3,3,2,2,3,3,2,2,2,2
"SMU",1995,2,7,1,4,2,1,0,0,2,NA,36.4,36.2,36.6,1.2931060791016,70,27,5,1,2,1,NA,4,4,5,NA,8,3,5,4,2,8,2,8,1,NA,NA,4,1,NA,1,NA,NA,NA,NA,NA,NA,NA,NA,NA,NA,2,2,2,4,2,4,1,2,2,3,3,3,4,3,3,4,3,3,3,3,3,3,3,3,3,3,3,3,4,2,5,4,2,3,5,4,2,4,2,2,2,2,2,2,2,4,2,5,5,5,6,6,4,2,4,4,5,4,5,2,2,4,6,6,5,4,3,2,2,4,2,2,2,2,2,2,2,3,2,2,2,2,3,4,4,4,4,4,4,4,4,4,3,5,5,5,5,4,5,4,5,3,5,2,3,4,5,4,4,3,2,3,3,4,3,2,2,5,3,3,3,3,4,3,5,2,1,2,3,4,2,5,5,2,4,5,2,4,2,1,3,3,3,2,4,5,3,5,3,4,4,3,1,1,1,2,2,4,3,4,2,4,2,4,4,4,3,4,3,4,4,3,2,3,3,3,3,2,5
"Tsinghua",1995,2,7,1,2,2,1,2,0,2,0,36.4,36.4,36.4,31.45930480957,70,14,7,3,2,1,0,4,4,5,0,3,4,3,4,1,1,2,6,2,1,4,3,1,5,1,"Éç»á","¾ãÀÖ²¿",NA,NA,NA,3,2,NA,NA,NA,3,4,3,4,3,3,4,3,2,4,4,3,2,2,2,4,3,4,2,4,3,2,3,3,2,2,2,3,4,4,3,4,3,3,4,4,3,2,4,3,2,4,2,3,3,4,3,5,4,4,4,5,4,2,3,5,2,6,3,5,6,3,6,5,5,5,3,5,4,3,5,5,5,5,4,4,5,4,3,6,6,4,4,4,4,5,4,4,5,4,4,4,4,2,3,3,3,3,3,3,2,3,3,2,4,2,2,3,3,3,3,4,3,3,4,4,4,7,6,5,4,5,2,3,2,3,2,2,2,3,2,3,2,2,3,3,3,2,3,3,3,2,3,3,2,4,2,4,2,3,2,4,2,4,2,3,3,3,3,2,3,4,2,4,3,3,2,3,4,2,3,3,3,2,3,4,4,2,3
"METU",1995,2,6,1,4,2,1,11,0,2,NA,36.4,36.3,36.5,39.911697387695,64,6,3,2,2,1,NA,4,4,4,1,8,3,8,8,1,NA,2,7,1,NA,NA,3,1,NA,1,NA,NA,NA,NA,NA,NA,NA,NA,NA,NA,3,2,1,5,3,4,1,2,1,1,3,2,2,3,2,2,3,3,1,2,2,2,3,4,2,5,2,5,4,3,4,4,2,5,2,5,5,5,4,4,5,1,4,2,1,2,4,5,1,1,5,6,2,2,2,1,2,6,1,3,2,5,6,5,1,2,2,2,2,2,2,2,2,2,2,1,2,2,2,2,2,2,1,5,5,5,5,5,5,5,5,5,5,7,6,6,5,3,3,2,2,1,2,2,2,2,2,4,4,1,2,1,3,5,1,5,5,5,1,6,3,3,1,4,2,4,5,5,5,2,5,2,2,1,1,2,4,2,5,5,2,5,3,1,5,4,4,5,5,3,5,5,5,4,2,3,2,2,2,2,2,4,2,4,2,5,1,4,2,5,3,5,1,4,4,3,4,1,4
"SMU",1995,1,4,1,3,2,1,0,0,1,1,36.4,36.3,36.5,1.2931060791016,70,27,5,1,2,1,NA,4,2,1,NA,1,NA,7,4,1,NA,2,8,1,NA,NA,1,1,NA,2,"smux","projects","yolo","others",NA,7,5,7,7,NA,3,3,2,3,3,3,3,4,2,3,4,3,2,4,4,4,2,2,2,2,4,2,2,4,4,2,4,4,4,4,4,4,4,4,4,4,4,4,3,4,5,5,5,4,4,4,4,5,6,4,6,5,5,7,5,4,5,3,6,4,4,4,5,6,6,4,2,6,2,5,5,6,2,3,2,4,2,4,6,4,5,3,3,4,3,2,2,4,4,3,3,2,6,5,5,6,5,5,6,3,3,3,2,4,4,3,4,4,4,4,2,3,3,4,3,2,2,4,3,2,2,2,4,3,4,1,2,2,3,2,2,5,4,3,2,3,4,4,2,4,3,4,2,3,3,2,4,3,2,4,4,3,2,3,3,4,3,2,1,4,3,4,2,4,3,2,4,2,4,4,3,3,2,4,3,2,3,4,4
"VCU",1995,2,6,2,3,2,1,4,0,2,NA,36.41666667,36.38888889,36.44444444,37.553802490234,68,10.55555556,5,1,2,1,NA,4,4,5,NA,8,1,8,8,2,6,2,8,3,1,8,1,2,5,2,"Sorority","Honor society",NA,NA,NA,55,15,NA,NA,NA,4,5,5,5,4,1,5,4,5,4,4,4,4,4,3,2,3,2,3,3,4,3,2,4,5,2,2,4,4,1,4,1,2,4,2,4,5,5,5,5,2,1,1,2,4,2,5,2,2,2,2,2,2,2,5,3,5,3,2,5,2,2,2,2,5,2,3,2,3,2,2,2,3,3,2,3,2,2,2,3,6,3,6,5,5,5,5,5,4,4,2,4,5,5,5,5,5,3,4,2,4,2,4,2,2,2,2,4,2,2,2,2,2,4,2,3,3,4,1,3,2,2,2,2,2,4,2,4,2,2,4,4,2,2,2,4,4,4,5,2,2,2,4,4,3,4,2,4,2,4,4,2,2,3,2,2,4,4,4,2,2,4,4,2,2,2,2,1,4,1,4,4,2,4,4,4,3,2,4
"UCSB",1995,2,7,1,4,2,1,0,0,2,NA,36.41666667,36.61111111,36.22222222,34.4329071,64,6.111111111,5,1,2,1,NA,4,2,5,NA,4,3,7,7,2,6,2,8,1,NA,NA,5,2,2,1,NA,NA,NA,NA,NA,NA,NA,NA,NA,NA,3,2,3,5,4,4,2,3,4,3,5,3,5,4,4,5,2,4,3,2,4,4,3,3,5,1,4,4,4,3,4,4,3,2,4,4,4,4,4,4,2,3,2,4,4,4,4,6,5,2,5,4,6,2,5,5,3,2,6,4,5,5,5,6,5,3,3,5,2,3,3,2,2,3,2,1,2,2,5,5,4,2,5,2,2,2,2,1,2,2,2,4,4,3,6,3,5,4,4,4,4,3,3,4,4,4,4,2,4,4,2,1,1,3,2,5,7,7,6,6,6,5,1,3,2,4,3,4,2,3,3,3,2,1,1,2,4,1,4,2,4,3,4,3,4,4,4,4,2,4,5,1,2,5,3,2,2,2,4,2,2,4,3,4,4,2,3,4,4,2,3,5,2,5,5,5,5,4,4
"VCU",1995,2,7,1,4,2,1,12,0,2,NA,36.44444444,36.44444444,36.44444444,37.557693481445,81,14.44444444,5,1,2,1,NA,4,4,5,NA,2,2,5,5,1,NA,2,8,3,1,3,1,1,NA,1,NA,NA,NA,NA,NA,NA,NA,NA,NA,NA,3,4,2,1,2,2,2,2,2,2,3,4,4,3,3,4,2,3,3,3,3,3,3,3,5,2,3,5,5,3,5,4,2,2,3,5,4,4,4,5,4,3,5,5,2,5,4,3,3,3,5,4,5,1,7,5,1,2,3,2,5,2,1,5,1,1,1,1,2,2,1,1,2,7,1,1,1,1,3,2,2,1,1,5,4,4,4,4,4,4,4,3,5,5,5,5,6,5,2,1,4,1,4,1,2,3,2,3,1,2,4,4,2,3,2,2,5,3,2,1,2,5,1,4,3,4,4,4,4,4,4,4,2,4,2,4,4,1,3,3,1,4,4,5,4,5,3,5,2,4,4,4,1,3,1,4,5,4,4,1,2,4,3,2,4,3,4,4,4,4,4,3,2,4,4,3,3,1,4
"Serbia",1995,1,6,2,3,2,1,0,0,2,NA,36.45,36.3,36.6,44.870803833008,56,6,6,1,3,1,NA,4,4,5,NA,1,NA,3,3,1,NA,2,8,1,NA,NA,1,1,NA,1,NA,NA,NA,NA,NA,NA,NA,NA,NA,NA,3,3,2,2,2,4,2,4,2,3,4,2,3,3,2,3,2,3,2,4,3,3,2,3,4,2,3,1,2,1,1,1,1,2,1,1,2,1,1,2,1,1,1,1,1,1,1,5,3,1,1,4,3,2,2,4,5,NA,1,1,4,2,1,2,1,4,3,4,NA,5,3,2,4,NA,NA,1,NA,NA,5,3,4,1,NA,4,3,3,5,4,3,3,4,4,6,5,5,5,6,6,6,4,3,1,4,3,4,4,4,1,3,1,3,4,3,3,4,2,2,2,1,2,1,1,2,4,2,3,1,2,3,3,3,4,4,3,3,3,3,5,4,5,3,4,3,3,3,3,2,3,3,3,4,3,2,3,3,3,4,3,2,2,3,3,3,4,4,3,4,3,3,3,4,3,3,4,3,3,3,4,4
"Oslo",1995,1,5,1,2,2,1,0,3,2,NA,36.45,36.6,36.3,59.916702270508,87,-1,4,1,1,1,NA,4,1,4,1,3,1,5,5,1,NA,1,NA,3,1,1,1,1,NA,1,NA,NA,NA,NA,NA,NA,NA,NA,NA,NA,3,2,3,4,3,2,2,2,2,2,3,4,4,3,2,3,1,2,1,3,2,2,2,3,4,2,3,2,1,1,1,1,1,1,1,3,2,2,2,2,1,1,1,1,1,1,1,1,1,1,2,4,2,1,1,1,2,7,1,1,1,1,3,1,1,1,1,2,1,2,1,1,1,1,1,1,2,1,1,4,2,1,2,5,5,5,5,5,5,3,5,5,3,4,4,4,4,4,4,2,2,1,2,3,2,2,2,1,1,2,2,2,2,3,2,4,5,4,1,1,3,5,4,4,4,4,2,1,2,3,2,5,3,3,4,4,4,2,2,4,3,3,4,4,5,5,3,4,3,5,5,3,1,1,1,1,1,4,4,3,2,1,2,5,2,3,4,4,4,5,5,3,2,5,3,5,4,2,2
"Oslo",1995,2,7,1,3,2,1,1,0,2,NA,36.45,36.5,36.4,59.912704467773,93,0,4,1,2,1,NA,4,4,4,1,5,3,6,5,1,NA,2,8,1,NA,NA,1,1,NA,1,NA,NA,NA,NA,NA,NA,NA,NA,NA,NA,3,4,3,4,4,3,4,3,4,3,4,4,5,3,4,4,2,3,2,3,3,2,2,4,2,2,3,2,2,2,2,2,2,2,2,4,4,2,3,3,2,2,2,2,2,2,2,5,2,2,2,6,4,2,5,3,2,3,2,2,2,5,3,5,1,3,2,5,3,2,2,2,2,2,2,3,2,2,2,4,4,2,3,5,4,4,5,5,4,2,4,4,3,1,2,2,3,3,3,4,2,4,4,4,4,4,3,3,2,2,2,2,3,2,2,3,3,3,1,1,1,1,2,4,2,4,2,2,3,2,2,5,4,1,4,5,4,4,1,4,2,3,4,4,4,4,4,5,4,4,4,4,1,1,1,4,2,3,2,2,2,2,4,3,4,4,3,4,4,4,3,2,4,4,3,4,2,2,2
"Kassel",1995,2,7,1,5,2,1,0,3,1,2,36.45,36.5,36.4,51.316696166992,78,8,1,1,2,1,NA,4,4,5,NA,7,5,8,8,2,1,2,8,1,NA,NA,1,1,NA,1,NA,NA,NA,NA,NA,NA,NA,NA,NA,NA,3,3,4,4,4,3,3,4,5,4,4,3,5,2,3,4,2,1,1,2,2,2,2,3,4,1,1,2,3,2,2,3,2,4,4,2,4,3,4,3,4,1,1,1,1,2,4,3,1,1,2,2,2,1,3,1,1,1,1,1,4,2,1,4,1,2,1,4,2,1,1,2,1,7,1,2,1,1,1,2,3,1,1,5,4,5,5,5,5,5,5,5,4,2,2,2,3,2,3,2,2,1,2,2,1,2,1,1,2,2,2,3,2,3,2,5,7,6,6,4,4,4,2,4,3,4,1,4,2,2,4,5,5,2,4,5,3,4,2,2,3,4,3,5,4,4,5,5,4,4,5,4,1,2,1,3,4,4,3,3,3,3,4,2,4,4,2,3,5,3,4,4,1,5,5,5,4,2,4
"METU",1995,1,4,2,4,2,1,3,3,1,15,36.45,36.4,36.5,39.911697387695,70,3,3,2,3,1,NA,4,4,5,NA,7,5,8,8,1,NA,2,4,1,NA,NA,1,2,3,2,"agt","¨¹nifeb",NA,NA,NA,2,3,NA,NA,NA,2,1,2,5,2,2,1,1,1,2,2,2,2,4,4,3,4,4,3,4,4,4,5,4,4,3,1,4,4,2,3,4,2,2,2,2,3,4,2,3,2,2,1,1,1,2,2,2,1,1,1,6,2,1,1,1,4,7,2,1,1,1,4,1,1,3,1,1,4,5,1,1,4,2,2,2,3,1,2,2,2,1,2,4,1,4,3,2,2,2,2,2,4,2,2,2,2,2,2,2,4,2,4,4,2,2,2,4,2,2,3,3,2,2,4,4,6,7,6,6,6,5,4,2,5,4,2,1,5,5,1,4,4,2,4,5,4,4,2,5,4,3,5,4,5,5,4,4,2,3,3,3,2,2,2,1,1,2,2,2,3,4,4,4,4,4,4,2,2,4,5,4,2,3,3,2,2,1,4
"Tsinghua",1995,1,4,2,3,2,1,0,0,2,0,36.45,36.4,36.5,30.580093383789,74,16,7,3,2,1,0,4,2,5,0,3,1,6,6,1,1,2,8,1,1,2,1,1,3,1,"°®ÌìÊ¹¹«ÒæÉçÍÅ",NA,NA,NA,NA,2,NA,NA,NA,NA,4,5,3,4,4,2,1,3,2,2,5,2,4,2,2,2,4,2,1,3,4,3,3,2,5,4,1,4,1,2,4,4,2,2,2,4,4,2,5,4,1,3,4,2,2,2,2,7,7,6,6,7,1,6,4,6,7,2,5,7,6,7,3,6,2,6,3,1,2,2,1,1,1,1,3,3,1,2,1,2,1,1,3,5,4,4,5,5,1,2,1,1,5,5,5,6,6,6,5,2,2,2,2,1,4,2,2,1,4,2,2,1,1,2,2,2,2,4,1,2,3,4,5,5,5,5,1,2,4,5,1,5,2,1,5,2,2,4,2,4,2,1,4,4,2,1,1,2,1,2,2,1,4,4,3,2,5,4,3,5,5,5,1,5,5,1,1,2,5,1,1,1,2,4,2,2,3,4,1
"Tsinghua",1995,2,7,2,2,2,1,0,0,2,0,36.45,36.3,36.6,30.666702270508,62,15,7,3,2,1,0,4,2,5,0,3,1,4,3,1,1,2,2,1,1,1,1,2,1,2,NA,NA,NA,NA,NA,NA,NA,NA,NA,NA,3,3,1,4,3,3,1,1,1,2,2,1,2,4,4,3,2,3,3,3,3,3,3,4,4,3,4,3,4,2,4,1,1,4,3,4,3,2,2,2,3,2,2,2,3,2,3,6,4,4,5,4,3,4,4,4,4,4,4,4,4,3,4,5,4,4,2,3,4,4,4,5,4,4,4,4,4,4,5,2,5,4,4,4,4,4,4,4,4,4,4,4,4,2,4,6,6,6,6,4,4,4,2,3,4,4,2,2,4,4,3,1,2,2,3,2,2,3,2,2,2,2,2,4,4,4,1,4,3,3,4,4,3,2,2,4,4,1,4,4,2,2,3,3,4,3,4,4,4,3,4,4,2,2,3,3,4,4,3,3,2,3,2,4,3,4,2,4,4,4,3,2,3,4,4,3,4,2,4
"SMU",1995,2,7,1,2,2,1,3,0,2,NA,36.45,36,36.9,1.2931060791016,71,26,5,1,2,1,NA,2,2,5,NA,3,2,7,8,1,NA,2,8,1,NA,NA,2,2,4,2,"Volunteering group",NA,NA,NA,NA,3,NA,NA,NA,NA,3,3,4,4,3,3,1,3,3,2,3,3,3,3,3,3,3,3,3,3,3,3,3,3,3,3,3,3,3,3,3,3,3,3,3,3,4,3,3,3,3,3,3,3,3,3,3,4,4,4,4,4,4,4,5,4,3,3,3,5,4,3,4,5,4,4,4,5,3,4,3,4,3,3,5,5,5,4,4,3,3,4,5,4,4,4,4,4,4,4,4,4,4,5,4,4,4,5,4,3,2,3,3,3,2,3,2,3,2,2,4,2,2,3,2,3,2,4,1,1,1,1,3,4,4,3,3,3,3,3,3,4,3,3,4,3,3,3,3,3,3,3,3,3,3,3,3,3,3,2,3,3,3,3,3,3,4,4,3,3,3,3,3,3,3,3,3,3,3,3,3,4,3,3,3,3,3,3,3
"Kassel",1995,2,5,1,3,2,1,1,0,2,NA,36.45,36.7,36.2,51.358795166016,76,1,1,1,1,1,NA,4,4,4,2,6,2,6,3,1,NA,2,7,3,1,3,1,1,NA,1,NA,NA,NA,NA,NA,NA,NA,NA,NA,NA,1,1,2,5,3,5,1,2,1,4,3,2,3,2,3,3,4,2,2,3,3,4,2,4,4,2,3,4,3,2,3,3,2,4,3,4,3,1,4,3,1,1,2,2,1,1,4,3,2,1,2,2,2,1,1,2,1,2,2,1,2,2,2,3,1,1,1,2,2,2,1,2,3,3,2,2,1,1,1,7,4,1,2,4,5,4,4,5,5,3,5,5,6,6,6,6,7,5,5,3,2,1,3,4,2,3,2,4,2,3,2,2,2,1,2,3,4,5,2,4,3,4,2,2,3,5,3,3,1,3,4,4,3,1,3,4,2,3,2,4,2,4,1,4,3,4,4,3,3,3,4,4,1,1,1,2,3,4,3,2,2,4,3,3,4,3,1,4,4,4,4,4,1,3,4,4,3,1,2
"METU",1995,2,1,1,4,2,1,6,0,2,NA,36.45,36.3,36.6,39.911697387695,64,2,3,2,1,1,NA,4,4,4,2,1,NA,3,3,1,NA,2,8,1,NA,NA,1,2,8,2,"psikoloji toplulu?u","k¨¹ba salsa dans grubu","toplum g?n¨¹ll¨¹leri vakf?",NA,NA,7,7,5,NA,NA,4,4,4,3,3,4,4,4,3,3,4,3,4,2,2,4,2,2,2,2,3,2,2,5,5,2,4,4,4,3,4,2,1,4,3,4,4,4,4,4,4,3,3,4,4,3,4,7,2,2,3,7,3,4,2,3,2,5,2,1,2,3,5,4,1,2,1,2,2,2,2,1,2,2,1,1,1,1,2,2,1,1,2,4,3,4,5,4,3,2,4,4,7,6,5,5,6,5,6,2,2,3,2,3,3,2,2,4,2,2,2,4,3,3,2,5,7,5,5,5,6,4,4,4,4,5,4,2,4,4,4,5,5,2,4,5,4,4,5,5,3,4,3,3,4,5,4,5,5,5,5,5,2,2,1,3,5,4,4,4,2,2,2,4,3,5,3,4,4,5,5,4,2,4,5,3,4,2,5
"Tsinghua",1995,1,7,2,4,2,1,0,0,2,0,36.45,36.3,36.6,23.11669921875,72,14,7,3,2,1,0,4,2,5,0,5,4,5,3,1,1,2,3,1,4,7,1,2,1,1,"Ö¾Ô¸ÕßÐ­»á",NA,NA,NA,NA,NA,NA,NA,NA,NA,3,4,4,4,4,4,2,4,3,4,4,3,3,3,2,2,4,4,3,3,1,3,5,2,4,2,1,4,4,2,4,2,2,4,4,5,5,4,4,4,3,2,2,2,2,2,3,2,2,2,2,6,2,2,2,2,2,2,2,4,2,2,4,2,2,2,2,2,2,2,4,2,3,2,2,2,3,2,2,2,2,2,2,5,5,5,5,5,5,5,5,5,5,2,4,6,6,5,5,2,2,2,2,2,3,3,2,3,2,3,3,3,2,3,2,4,4,3,1,2,1,3,2,4,4,4,2,2,2,3,2,5,2,2,3,4,3,2,2,2,3,2,2,5,4,3,2,4,4,2,4,4,4,4,2,2,2,3,4,2,2,3,4,3,4,3,3,5,3,3,2,4,2,4,4,2,2,2,3
"SMU",1995,2,6,2,2,2,1,0,0,2,NA,36.45,36.4,36.5,1.2931060791016,70,26,5,1,2,1,NA,4,4,5,NA,2,2,5,5,1,NA,2,8,1,NA,NA,1,1,NA,1,NA,NA,NA,NA,NA,NA,NA,NA,NA,NA,4,3,4,4,5,4,3,3,3,4,3,4,4,3,3,4,3,3,3,3,3,3,3,3,4,2,3,4,4,3,4,3,3,4,3,4,4,4,4,4,4,4,3,3,4,3,4,4,4,4,4,4,3,4,4,4,4,3,4,4,4,4,4,5,3,3,3,4,4,4,5,4,4,4,4,5,5,3,4,4,4,3,4,4,3,4,3,3,3,3,3,3,3,4,4,5,4,4,4,2,3,2,2,2,3,3,2,2,2,2,2,2,2,2,2,3,4,4,3,3,3,3,2,4,3,3,2,3,3,3,4,4,3,2,3,4,4,3,3,2,3,3,4,4,3,3,4,3,3,3,3,4,3,3,3,2,2,4,3,3,2,3,3,3,3,3,4,3,4,2,2,2,3,3,2,3,2,3,3
"Kassel",1995,2,7,1,3,2,1,6,0,2,NA,36.45,36.3,36.6,30.666702270508,49,15,1,1,1,1,NA,4,4,2,2,6,3,6,6,1,NA,2,8,3,2,6,1,1,NA,1,NA,NA,NA,NA,NA,NA,NA,NA,NA,NA,3,2,4,3,2,4,2,3,3,3,4,2,3,5,4,5,3,2,3,3,4,3,3,5,4,2,5,4,4,3,4,5,3,2,5,4,4,4,4,4,4,3,3,4,5,4,4,5,3,4,5,4,3,4,5,4,2,4,3,5,4,3,3,5,1,4,3,6,3,4,3,3,3,3,2,3,3,3,3,6,6,2,3,4,4,3,4,4,4,3,3,3,4,4,4,3,3,3,4,4,4,2,4,3,3,4,4,2,3,2,2,2,3,4,2,4,5,3,3,4,5,4,2,3,2,4,3,4,3,3,4,3,3,1,2,4,4,2,2,3,2,3,3,3,4,4,3,4,2,3,4,2,2,3,2,4,4,4,4,3,3,2,3,4,4,2,2,2,4,2,2,2,3,4,2,2,3,2,1
"Tsinghua",1995,1,7,1,2,2,1,0,0,2,0,36.45,36.4,36.5,51.316696166992,71,12,7,3,2,1,0,4,2,5,0,3,1,4,4,1,1,2,8,1,1,8,1,2,1,2,NA,NA,NA,NA,NA,0,0,0,0,0,1,2,3,5,5,3,1,1,3,2,3,1,3,3,3,4,3,4,1,4,3,2,4,3,3,4,3,4,4,2,4,4,4,4,4,4,3,4,4,4,2,4,4,4,4,4,4,7,7,1,7,7,4,2,5,4,7,5,6,2,3,4,6,6,5,4,4,2,2,3,2,1,3,4,4,4,5,4,2,1,1,2,6,5,4,4,4,4,3,3,2,3,3,3,5,6,6,6,4,4,4,3,3,2,4,3,3,4,4,2,2,4,1,3,2,3,3,7,1,5,3,2,3,5,4,5,1,4,1,3,4,5,2,2,4,4,3,2,2,3,3,4,3,4,3,4,4,5,4,2,4,3,3,2,2,4,2,4,1,4,4,3,3,4,3,2,2,4,4,4,4,2,4,4,4,4,4,2,4
"METU",1995,2,7,1,3,2,1,4,0,2,NA,36.45,36.2,36.7,39.911697387695,69,6,3,2,2,1,NA,4,4,4,4,8,5,4,3,1,NA,2,8,1,NA,NA,1,1,NA,1,NA,NA,NA,NA,NA,NA,NA,NA,NA,NA,2,2,2,3,2,3,1,2,1,3,4,2,4,4,4,5,4,4,4,2,3,4,3,5,5,2,2,5,5,5,4,4,4,5,3,3,4,4,4,4,4,2,2,3,2,3,4,5,2,2,5,4,4,5,6,5,2,7,2,2,5,2,6,5,2,5,3,5,3,3,2,2,1,2,2,1,2,1,2,2,2,1,1,5,4,4,5,5,4,4,4,4,6,6,6,7,7,5,5,2,2,4,2,3,4,3,2,2,5,5,1,2,4,2,2,5,8,7,4,6,6,6,1,1,4,4,2,4,3,4,5,5,5,1,4,4,4,4,4,4,2,4,3,4,3,4,4,5,5,4,5,5,1,1,1,4,5,5,5,5,2,4,4,4,3,5,2,3,2,5,3,3,2,3,5,3,3,2,4
"UCSB",1995,2,7,1,4,2,1,0,0,2,NA,36.47222222,36.5,36.44444444,37.79570007,78,14.44444444,5,1,2,1,NA,4,4,5,NA,8,5,8,8,2,8,2,8,1,NA,NA,4,2,3,1,NA,NA,NA,NA,NA,NA,NA,NA,NA,NA,3,4,4,5,4,3,3,1,2,2,3,5,3,2,4,4,3,2,2,2,3,3,2,4,3,2,3,2,3,2,2,2,2,2,2,2,3,3,2,2,3,3,3,2,2,3,2,2,2,2,2,4,3,2,2,2,2,2,2,2,2,2,2,2,2,2,6,3,3,2,3,2,3,4,2,3,3,2,1,2,3,4,2,5,5,5,5,5,5,5,5,5,4,3,3,3,2,2,2,2,2,1,2,1,1,1,1,1,1,1,3,1,5,2,5,5,6,5,4,4,4,3,2,4,3,4,4,4,4,4,4,2,2,2,4,3,3,2,2,2,2,2,4,4,3,3,4,4,4,4,4,4,2,2,2,2,4,4,3,2,2,4,2,4,4,4,2,4,4,4,4,4,2,4,4,4,3,4,3
"UCSB",1995,2,6,2,2,2,1,3,0,2,NA,36.47222222,36.61111111,36.33333333,34.4329071,80,8.333333333,5,1,2,1,NA,4,4,2,1,8,1,8,6,1,NA,1,NA,1,NA,NA,1,1,NA,2,"Lacrosse team",NA,NA,NA,NA,7,0,0,0,0,2,2,1,2,4,2,1,1,1,2,3,4,4,3,3,3,3,3,3,4,2,4,4,2,4,3,4,4,4,4,4,3,2,4,2,3,2,3,2,4,2,2,4,4,3,4,4,4,5,4,6,6,6,2,5,5,2,5,4,4,2,5,5,6,4,3,3,3,4,2,4,2,4,4,3,4,4,3,4,3,4,4,4,4,4,4,4,4,4,4,4,5,5,6,4,5,7,6,6,4,4,2,4,2,2,4,2,2,2,2,4,4,2,4,2,3,4,4,2,2,2,1,4,2,4,4,2,1,2,2,4,4,4,2,3,4,4,5,2,4,2,3,4,4,4,4,4,3,2,3,3,2,3,4,3,2,3,4,3,3,2,4,2,2,4,2,4,2,4,2,3,2,4,4,4,3,2,2,4
"Portugal",1995,1,4,1,4,2,1,3,0,1,20,36.5,36.5,36.5,38.716705322266,42,13,8,1,2,1,NA,4,4,5,2,1,NA,4,4,1,NA,2,3,1,NA,NA,1,1,NA,1,NA,NA,NA,NA,NA,NA,NA,NA,NA,NA,3,4,2,5,3,5,5,5,2,5,4,5,5,4,5,4,3,2,1,2,1,4,2,5,4,2,4,1,3,1,1,1,1,1,1,1,4,1,4,3,1,1,1,1,1,1,3,2,3,5,4,1,6,5,7,6,1,6,7,2,6,2,6,6,6,4,4,6,4,2,1,3,4,4,1,4,4,4,1,5,7,4,1,5,5,5,5,5,5,5,5,5,7,7,7,7,7,6,7,1,3,1,3,1,1,1,3,1,1,1,2,1,2,1,3,5,8,7,8,5,7,8,1,5,5,2,1,5,4,1,5,4,5,1,4,4,5,4,5,5,3,3,3,3,3,3,3,3,1,5,4,1,4,1,3,2,1,5,2,5,2,2,5,5,1,1,5,4,4,3,5,5,2,2,1,4,2,1,3
"Serbia",1995,2,7,2,4,2,1,4,0,2,NA,36.5,36.6,36.4,44.818603515625,44,12,6,1,2,1,NA,4,4,5,NA,6,4,6,6,1,NA,2,8,1,NA,NA,3,1,NA,2,"Ekoloska grupa",NA,NA,NA,NA,2,NA,NA,NA,NA,3,4,2,3,3,4,3,2,1,2,5,4,4,2,3,4,1,2,3,3,3,2,3,2,5,2,3,1,2,2,1,1,1,1,1,2,2,2,3,2,1,1,1,1,3,1,1,5,5,5,5,8,7,2,4,6,1,4,1,3,1,5,2,5,2,2,1,3,1,2,1,1,1,1,NA,1,NA,1,2,5,6,1,NA,4,4,4,4,4,3,3,4,5,4,4,5,3,4,4,5,3,3,1,2,3,1,3,3,4,2,1,2,4,1,3,2,3,4,4,3,3,4,4,1,2,2,4,4,5,4,4,5,2,4,4,4,4,5,3,5,5,5,5,4,4,4,4,1,1,3,2,3,5,3,4,2,5,5,5,3,4,2,2,2,4,3,5,2,4,5,5,5,5,3,5,3,5,5,2,4
"Serbia",1995,1,2,1,3,2,1,0,0,2,NA,36.5,36.2,36.8,44.818603515625,68,7,6,1,2,1,NA,4,4,4,2,3,1,4,3,2,1,2,5,1,NA,NA,1,1,NA,2,"Trening",NA,NA,NA,NA,3,NA,NA,NA,NA,4,4,4,4,2,4,2,3,4,4,4,3,4,3,3,2,2,2,3,2,3,2,3,3,3,2,4,3,3,2,3,2,2,2,1,2,3,3,4,2,2,3,2,3,3,3,4,4,2,2,3,2,2,3,4,6,2,6,2,3,2,2,2,2,2,4,3,3,NA,3,4,3,3,6,NA,6,NA,5,2,6,6,NA,NA,4,4,4,4,4,3,2,4,2,2,2,2,2,2,2,2,2,3,3,3,3,2,2,2,2,2,2,3,2,2,2,4,2,4,1,1,1,3,1,3,3,4,4,2,2,3,4,2,4,3,4,3,3,4,3,4,2,3,3,4,3,3,4,2,2,2,4,4,4,3,4,2,2,3,3,3,4,3,2,3,3,2,3,3,3,2,3,2,4,3,4,3,3,3,4,2
"Serbia",1995,2,1,2,5,2,1,1,0,2,NA,36.5,36.4,36.6,44.818603515625,83,4,6,1,2,1,NA,4,4,5,NA,6,4,5,5,1,NA,2,8,1,NA,NA,3,1,NA,1,NA,NA,NA,NA,NA,NA,NA,NA,NA,NA,5,3,4,5,5,1,3,4,5,5,5,5,4,2,3,2,1,2,2,2,3,2,1,3,3,2,5,3,3,2,2,2,3,2,1,3,4,4,3,4,4,3,2,3,2,3,3,2,2,2,5,8,4,2,2,4,2,4,2,2,2,2,3,4,2,4,3,8,3,4,4,4,NA,3,3,4,3,3,4,4,6,NA,NA,5,4,4,4,4,3,4,3,4,3,3,1,1,2,2,3,3,2,3,2,3,3,2,2,2,2,2,2,2,2,2,2,3,3,4,3,2,4,5,3,3,2,4,3,4,4,4,4,4,3,4,2,3,2,4,5,4,4,4,2,3,4,3,2,2,2,2,3,3,1,2,2,4,3,1,5,3,3,4,4,3,5,4,2,3,4,3,4,3,2,4,2,3,4,2,4
"Serbia",1995,2,5,2,2,2,1,2,0,2,NA,36.5,36.5,36.5,44.818603515625,58,4,6,1,2,1,NA,4,4,5,NA,4,3,7,7,1,NA,2,2,1,NA,NA,1,1,NA,1,NA,NA,NA,NA,NA,NA,NA,NA,NA,NA,3,2,1,2,4,4,1,1,2,1,2,2,4,3,3,4,3,3,3,4,4,4,3,3,3,4,4,2,4,2,2,3,2,1,3,4,1,1,1,1,1,1,1,1,1,3,1,3,2,3,5,5,4,2,4,3,4,NA,4,5,4,4,5,3,2,5,5,8,NA,5,2,4,NA,3,5,3,5,5,3,6,6,NA,3,4,2,4,4,2,4,4,4,4,5,5,6,6,5,5,6,2,2,2,2,2,2,2,2,2,2,2,2,2,2,2,2,1,3,4,1,3,1,3,1,5,4,2,1,5,2,2,5,5,5,5,1,1,5,5,3,4,2,4,2,2,5,4,1,2,1,4,5,2,4,5,1,3,4,5,4,4,2,2,2,4,4,2,1,3,4,1,1,4,1,4,4,2,2,1,4
"SMU",1995,2,1,2,4,2,1,0,0,2,NA,36.5,36.4,36.6,1.2931060791016,71,26,5,1,2,1,NA,4,4,5,NA,1,NA,4,4,2,8,2,8,1,NA,NA,1,1,NA,1,NA,NA,NA,NA,NA,NA,NA,NA,NA,NA,2,2,2,1,2,4,2,2,2,4,3,2,2,3,4,3,2,3,2,2,4,3,2,4,4,2,4,2,4,2,4,2,2,2,4,2,4,4,4,4,4,1,2,1,4,4,4,2,2,2,3,5,5,2,2,2,2,2,2,4,6,1,4,1,2,2,2,2,2,2,3,2,2,2,2,2,2,2,2,2,3,4,2,5,4,4,4,4,4,4,4,4,7,4,4,4,4,4,4,2,2,2,2,2,2,2,2,2,2,2,4,4,4,5,4,1,3,2,2,2,3,2,4,4,4,4,2,2,4,4,2,4,2,4,2,4,4,4,4,4,1,2,4,4,4,3,3,4,4,3,2,1,2,3,2,2,2,2,4,2,4,4,4,4,4,2,4,4,4,2,2,4,2,2,2,3,3,2,2
"METU",1995,1,4,2,2,2,1,NA,NA,1,15,36.5,36.5,36.5,39.911697387695,69,6,3,2,2,1,NA,4,4,5,NA,5,2,6,4,1,NA,2,8,1,NA,NA,1,1,NA,1,NA,NA,NA,NA,NA,NA,NA,NA,NA,NA,2,2,1,1,2,3,1,2,2,2,2,2,3,4,4,3,3,3,3,4,4,4,3,3,3,2,3,2,2,2,4,4,2,3,2,4,2,2,2,3,2,1,4,3,1,2,2,4,4,4,4,4,4,4,4,4,4,4,4,4,4,4,4,6,4,4,4,4,4,2,4,4,4,4,4,4,4,4,4,4,4,4,4,4,3,4,3,3,4,4,4,4,6,7,5,6,7,6,5,2,4,3,3,2,4,4,4,3,4,3,2,3,3,2,2,5,4,5,3,1,1,1,4,3,4,4,3,4,2,3,4,4,3,2,4,2,2,4,3,4,3,4,4,3,4,4,4,3,3,3,3,3,4,2,3,3,4,2,3,2,3,4,4,4,4,3,2,3,2,3,3,4,2,2,3,2,3,3,3
"Kassel",1995,2,7,1,3,2,1,0,0,2,NA,36.5,36.5,36.5,51.335494995117,88,0,1,1,1,1,NA,4,4,4,1,8,6,7,7,2,1,2,8,1,NA,NA,1,1,NA,2,"Reitverein","Sport","-","-","-",4,2,0,0,0,3,3,3,4,4,4,1,4,1,4,4,2,5,3,3,3,3,2,2,4,3,3,3,4,4,3,3,3,4,3,3,2,2,3,3,2,2,3,3,1,2,2,1,2,1,2,2,1,1,2,2,1,3,1,4,2,2,2,1,2,1,7,2,4,2,6,6,6,6,2,6,6,4,4,7,4,6,6,4,7,7,6,5,5,4,5,5,3,4,3,4,4,2,3,3,3,3,3,3,2,3,1,4,1,1,2,3,3,2,2,2,4,2,4,2,4,7,3,3,2,2,5,3,3,2,5,4,2,3,1,2,3,1,1,3,5,5,1,2,4,1,4,4,4,4,3,3,3,4,3,3,4,4,2,4,3,2,5,3,3,3,3,4,4,2,2,3,4,4,2,2,1,4,1,3,4,3,5,3
"SMU",1995,2,7,1,4,2,1,0,0,2,NA,36.5,36.5,36.5,1.2931060791016,70,27,5,1,2,1,NA,4,4,5,NA,5,4,8,4,2,4,2,8,1,NA,NA,1,2,1,2,"Accounting Society",NA,NA,NA,NA,6,NA,NA,NA,NA,3,2,5,3,4,4,4,4,4,3,4,3,4,3,4,5,3,2,3,1,5,3,3,3,5,2,4,2,4,2,4,3,4,2,3,3,4,4,4,1,3,2,2,4,2,2,4,2,2,2,3,2,2,2,2,2,2,2,2,2,2,2,2,5,2,3,2,2,1,2,3,5,2,2,1,2,2,2,4,2,2,2,1,5,5,5,5,5,5,5,5,5,6,6,6,6,6,6,6,2,4,1,4,4,1,2,3,2,2,3,2,2,2,3,2,5,6,6,3,3,4,4,2,5,5,3,1,2,4,2,2,5,5,3,5,5,3,5,2,2,4,4,5,3,4,4,4,4,4,3,4,4,3,2,2,2,2,2,4,2,2,4,2,4,4,2,4,4,4,3,3,5,2,5,4,3,1,2,5
"Kassel",1995,2,4,2,2,2,1,NA,0,2,NA,36.5,36.3,36.7,51.316696166992,78,8,1,1,2,1,NA,4,4,5,NA,1,NA,8,8,2,4,2,8,1,NA,NA,3,2,3,1,NA,NA,NA,NA,NA,NA,NA,NA,NA,NA,2,2,3,5,1,1,1,1,1,2,2,1,4,5,3,5,3,4,4,4,4,3,4,4,4,3,4,4,4,3,4,3,4,2,2,4,4,4,2,4,4,2,4,2,1,3,4,5,6,4,6,5,4,4,7,6,4,6,4,4,4,7,4,5,4,3,6,2,6,6,5,7,7,7,3,6,4,4,7,4,3,6,6,3,2,2,2,1,3,1,2,3,7,7,7,5,7,5,6,3,3,4,2,3,4,4,4,2,4,4,1,2,2,2,1,5,8,6,5,4,5,3,1,3,1,5,4,5,3,2,4,2,2,1,1,3,4,1,3,4,2,5,1,2,5,5,5,4,1,4,3,1,2,4,2,4,4,4,3,1,2,4,3,3,5,3,1,4,4,4,4,4,2,4,5,3,4,3,5
"Tsinghua",1995,2,7,2,2,2,1,0,2,2,0,36.5,36.5,36.5,30.580093383789,74,16,7,3,2,1,0,4,4,5,0,5,1,8,3,1,1,2,3,3,2,2,1,2,1,1,"14½ÌÓý°àÎ¯»á",NA,NA,NA,NA,6,NA,NA,NA,NA,4,3,2,4,5,2,2,2,2,2,3,2,2,3,3,3,3,2,2,3,3,2,4,3,4,3,3,4,4,2,4,3,1,4,4,4,3,4,4,5,4,1,2,2,1,4,4,2,5,5,6,6,5,5,5,2,2,2,5,5,2,6,6,6,5,4,2,5,3,2,2,6,2,5,2,2,2,3,5,3,3,3,2,4,4,3,4,4,3,3,3,4,2,2,2,4,2,3,2,2,3,3,2,2,4,4,2,4,3,3,3,4,2,4,1,5,2,1,3,4,1,6,2,2,4,4,3,3,2,3,4,4,2,4,3,4,3,2,2,4,4,2,3,3,4,4,4,4,4,3,4,4,3,1,2,2,3,4,4,3,2,4,3,4,2,4,3,4,4,2,2,4,2,3,4,4,4,2,4
"Tsinghua",1995,1,5,2,3,2,1,0,0,2,0,36.5,36.3,36.7,30.580093383789,71,16,7,3,2,1,0,4,4,5,0,8,3,4,2,1,1,2,3,3,1,3,1,2,3,2,NA,NA,NA,NA,NA,NA,NA,NA,NA,NA,4,4,4,4,4,3,2,4,4,3,4,4,4,3,4,4,2,2,2,3,4,3,3,4,3,3,4,4,3,4,4,2,2,4,4,4,2,2,2,2,2,2,2,2,3,3,2,4,2,3,3,3,5,5,5,6,5,5,3,3,5,4,2,3,2,2,6,2,3,3,2,2,5,6,6,3,6,3,2,4,6,3,4,4,4,4,4,4,4,4,4,4,4,2,4,5,5,6,6,4,3,2,2,2,4,2,2,4,2,2,2,2,2,2,2,3,4,4,3,2,2,2,2,4,4,4,2,2,3,2,2,3,2,2,2,2,4,2,3,4,2,2,4,4,2,2,2,2,3,2,3,2,2,2,4,4,4,4,2,2,2,3,3,2,3,4,2,4,2,2,4,3,2,3,4,2,4,3,2
"SMU",1995,2,7,1,2,2,1,0,0,2,NA,36.5,36.4,36.6,1.2931060791016,70,27,5,1,2,1,NA,4,4,5,NA,8,3,6,6,1,NA,2,8,1,NA,NA,2,1,NA,1,NA,NA,NA,NA,NA,NA,NA,NA,NA,NA,4,4,2,3,4,3,3,2,3,3,3,5,4,2,3,3,3,3,3,2,3,2,3,2,3,2,2,4,5,3,5,5,5,2,2,4,4,4,4,4,4,2,1,2,1,3,4,2,5,1,5,1,3,1,2,2,1,2,1,2,1,1,7,4,1,1,1,2,1,1,1,1,1,1,1,1,1,1,1,2,1,1,1,5,5,5,5,5,5,5,5,5,6,7,7,7,7,6,6,2,2,1,1,2,1,2,2,1,2,2,3,3,1,2,4,4,4,4,1,2,3,1,2,4,5,3,2,3,4,4,2,4,4,2,4,4,4,4,2,3,4,4,3,4,4,4,4,4,4,3,4,4,1,1,2,2,2,4,3,2,2,4,3,3,3,3,4,4,4,4,4,4,2,4,4,3,2,1,4
"METU",1995,2,7,1,4,2,1,2,5,2,NA,36.5,36.3,36.7,39.911697387695,64,6,3,2,2,1,NA,4,4,4,1,3,1,4,4,1,NA,2,8,1,NA,NA,1,1,NA,1,NA,NA,NA,NA,NA,NA,NA,NA,NA,NA,5,5,4,5,2,2,4,3,5,3,3,5,5,2,3,3,1,2,1,2,2,3,3,3,4,2,2,5,5,5,5,5,5,5,5,5,5,5,5,5,5,1,1,1,1,1,5,7,1,1,2,7,7,2,3,5,1,3,1,2,1,5,7,1,1,1,2,3,1,3,1,1,1,1,1,1,1,1,1,3,3,1,5,5,5,5,5,5,5,4,4,3,4,6,6,7,7,5,6,1,1,1,1,1,1,1,1,2,1,2,1,1,2,2,1,4,6,5,4,4,5,6,1,1,1,4,5,5,5,5,5,2,1,1,4,3,4,4,4,4,4,4,4,2,5,5,5,5,5,3,4,4,2,1,3,1,5,5,5,3,1,3,2,5,1,4,1,5,4,5,5,5,1,4,5,3,5,1,5
"VCU",1995,2,7,2,3,2,1,2,0,2,NA,36.52777778,36.5,36.55555556,37.660995483398,74,8.888888889,5,1,2,1,NA,4,4,5,NA,3,3,4,4,2,2,2,5,3,1,5,1,2,2,2,"Social club",NA,NA,NA,NA,2,NA,NA,NA,NA,4,4,3,3,3,4,4,3,4,4,4,4,4,3,3,4,2,3,3,3,3,4,3,3,5,2,3,2,4,2,4,2,2,4,4,4,4,4,4,4,2,2,2,2,2,2,4,2,2,2,2,2,3,2,2,2,2,5,2,2,1,2,2,2,2,5,3,6,5,5,5,5,6,6,5,2,5,5,5,5,6,6,6,5,4,5,4,4,4,4,4,4,4,5,5,4,4,4,4,4,4,2,4,4,2,4,4,4,2,2,2,2,2,4,2,3,4,5,3,3,3,3,2,3,2,5,5,2,3,2,4,4,2,2,2,4,5,2,4,2,2,2,4,3,4,4,4,4,4,3,3,3,2,2,2,4,4,4,4,2,4,4,5,4,4,4,2,3,4,4,4,4,2,4,4,4,4,2,4
"VCU",1995,2,7,1,3,2,1,0,20,2,NA,36.52777778,36.22222222,36.83333333,38.272399902344,82,10,5,1,2,1,NA,4,4,5,NA,7,7,3,3,1,NA,2,5,3,1,8,1,2,4,1,NA,NA,NA,NA,NA,NA,NA,NA,NA,NA,4,4,4,4,4,3,4,2,4,4,4,4,4,2,3,3,2,2,2,2,2,2,2,3,4,2,2,3,4,3,4,4,2,4,2,4,4,3,4,4,4,1,2,2,2,2,4,2,2,2,3,2,3,2,2,2,2,2,2,3,2,2,4,2,3,4,2,3,3,2,2,2,3,2,2,2,2,2,2,2,2,3,2,5,5,5,5,5,5,4,4,4,5,3,3,3,3,3,3,2,3,2,2,2,1,2,2,2,2,3,3,2,3,3,3,4,4,4,2,3,5,1,3,3,4,2,1,2,4,2,4,4,3,2,4,3,3,4,2,4,2,2,4,4,3,2,2,3,3,3,3,3,3,3,3,5,4,4,3,2,2,4,3,3,3,3,3,4,4,2,2,3,3,4,2,3,3,4,4
"VCU",1995,2,6,2,4,2,1,30,0,2,NA,36.52777778,36.44444444,36.61111111,37.553802490234,68,10.55555556,5,1,2,1,NA,4,4,5,NA,8,3,8,8,2,8,2,8,3,1,8,1,2,6,2,"Sorority",NA,NA,NA,NA,55,NA,NA,NA,NA,4,4,4,5,3,4,4,4,3,4,4,4,4,3,3,3,2,2,2,2,3,2,2,3,5,3,2,4,5,2,4,2,2,4,4,4,5,5,4,4,3,2,1,1,4,2,5,2,2,2,2,2,2,2,2,2,4,6,2,2,2,2,2,2,2,2,2,2,2,2,2,2,2,6,6,2,2,2,2,2,2,2,2,4,4,4,4,4,4,2,4,4,4,4,4,4,4,4,4,2,2,2,2,2,2,2,2,2,2,2,2,2,2,4,2,4,4,4,2,4,2,2,2,2,2,4,2,4,2,2,4,4,2,2,2,4,4,4,5,2,2,2,4,4,4,4,3,4,4,4,4,2,2,2,4,2,4,4,4,2,2,4,4,4,2,2,2,2,4,2,4,4,2,4,4,4,4,2,4
"Tsinghua",1995,1,7,2,2,2,1,0,0,2,0,36.53,36.7,36.36,30.580093383789,78,17,7,3,2,1,0,4,4,5,0,4,4,5,3,1,1,2,8,1,1,1,4,2,1,1,"Ñ§Éú»á",NA,NA,NA,NA,NA,NA,NA,NA,NA,4,2,3,3,3,2,2,2,2,4,4,3,5,3,3,3,3,2,2,3,3,3,4,3,4,3,3,5,4,3,4,4,4,4,4,4,4,4,4,3,3,4,4,4,4,3,4,3,6,6,3,6,4,6,6,4,5,4,6,4,6,5,4,5,4,6,2,4,4,3,4,4,4,4,2,2,2,2,4,4,4,2,4,3,3,4,3,4,4,1,3,5,6,1,5,4,4,5,6,3,2,3,2,4,3,3,2,3,2,3,2,2,3,2,1,3,3,4,3,2,2,3,1,5,4,4,1,4,1,1,3,5,4,1,3,5,5,1,5,5,1,1,3,5,3,2,2,4,3,3,4,4,4,2,1,4,4,4,1,1,1,3,4,4,4,4,1,4,3,2,2,5,5,5,3,5,3,1,1
"SMU",1995,2,1,2,3,2,1,1,0,1,3,36.535,36.33,36.74,1.2931060791016,70,26,5,1,2,1,NA,4,4,5,NA,4,1,5,5,2,4,2,8,1,NA,NA,2,1,NA,1,NA,NA,NA,NA,NA,NA,NA,NA,NA,NA,1,2,1,3,1,2,1,1,1,2,2,1,3,4,4,5,1,4,4,4,4,3,4,4,5,4,5,3,4,2,5,3,3,4,4,4,5,4,5,2,2,2,4,4,2,4,3,5,5,4,5,5,5,3,5,5,3,6,2,5,2,5,2,6,2,6,5,5,4,5,3,5,4,2,4,3,6,4,5,5,5,3,4,5,4,4,4,4,4,4,4,4,7,6,6,6,6,5,5,4,5,3,5,2,3,4,5,2,4,1,1,1,1,4,2,5,6,6,2,2,2,2,2,5,5,2,1,1,2,4,2,5,4,2,4,5,5,5,2,4,2,2,4,4,2,4,2,3,3,4,4,3,3,3,3,2,2,4,4,2,2,2,2,2,3,2,2,4,4,2,4,2,3,2,4,2,2,1,3
"Kassel",1995,2,7,2,4,2,1,2,0,2,NA,36.55,36.3,36.8,52.516693115234,61,9,1,1,2,1,NA,4,4,5,NA,2,2,8,6,1,NA,2,8,1,NA,NA,1,2,2,1,NA,NA,NA,NA,NA,NA,NA,NA,NA,NA,2,2,1,3,2,5,1,3,2,1,3,1,2,3,3,3,2,3,4,2,4,3,4,2,5,1,4,1,4,1,3,2,2,1,2,3,4,4,3,4,3,1,1,1,2,1,4,4,6,4,4,6,7,5,7,4,4,4,3,4,3,7,4,6,4,7,4,7,5,7,4,5,4,6,5,4,3,5,5,6,6,3,4,5,4,5,5,5,4,2,5,4,5,5,6,5,4,4,5,3,4,3,3,4,4,2,4,5,2,2,3,2,2,4,4,5,5,5,4,4,4,1,2,2,3,5,4,2,3,2,2,2,3,1,4,4,4,3,4,5,3,5,5,2,3,3,4,3,3,3,3,4,2,2,3,2,1,4,1,3,4,2,4,5,3,3,3,2,4,2,2,2,4,3,2,2,4,1,3
"Serbia",1995,2,7,1,3,2,1,6,0,2,NA,36.55,36.7,36.4,44.818603515625,58,4,6,1,2,1,NA,4,4,4,1,3,3,4,4,1,NA,2,8,1,NA,NA,1,1,NA,1,NA,NA,NA,NA,NA,NA,NA,NA,NA,NA,4,4,2,4,5,4,1,4,3,2,4,4,4,4,4,5,2,1,1,3,4,2,2,4,4,1,3,3,2,2,3,2,3,4,2,4,4,4,4,4,4,2,2,2,3,2,4,2,2,2,5,5,8,2,5,NA,8,NA,5,5,5,5,5,5,2,3,NA,3,NA,2,2,2,NA,NA,3,NA,6,3,2,5,5,1,5,2,4,2,3,4,2,2,2,2,3,1,1,1,3,3,3,2,2,2,2,3,2,2,2,3,2,2,1,1,1,2,2,5,4,5,2,4,4,6,1,4,1,4,3,4,3,2,4,3,2,3,4,4,1,3,3,4,4,4,4,3,4,4,2,2,3,2,2,4,2,4,2,2,2,4,4,1,2,3,3,4,4,4,2,4,4,4,4,4,2,4,3,3,3,4,4
"Chile",1995,2,6,1,3,2,1,0,0,1,NA,36.55,36.8,36.3,33.449996948242,55,12,2,1,1,1,NA,4,4,4,1,5,5,5,4,1,NA,2,6,4,1,1,1,1,NA,1,NA,NA,NA,NA,NA,NA,NA,NA,NA,NA,5,4,3,1,2,5,3,5,5,4,4,3,5,4,5,5,1,3,1,1,4,3,1,5,5,1,4,3,4,2,2,4,2,2,4,4,4,4,2,4,3,2,2,2,2,2,2,2,1,1,6,2,6,1,2,2,1,2,2,6,2,1,4,6,1,1,2,3,2,2,1,2,2,2,1,1,2,1,2,6,3,1,2,4,4,4,4,4,3,4,2,2,3,5,4,4,6,6,4,4,5,4,4,4,5,4,5,4,2,2,2,2,1,3,1,3,5,7,3,4,1,4,2,5,4,2,1,1,4,5,4,5,5,1,4,4,3,4,5,2,1,1,4,4,2,4,2,4,4,2,4,2,2,2,2,2,4,4,5,2,1,4,4,4,4,2,4,5,4,2,4,5,5,5,5,4,4,4,4
"Serbia",1995,2,7,2,2,2,1,0,4,1,10,36.55,36.6,36.5,44.818603515625,44,12,6,1,2,1,NA,4,2,5,NA,8,2,6,5,1,NA,2,4,1,NA,NA,1,1,NA,1,NA,NA,NA,NA,NA,NA,NA,NA,NA,NA,4,2,3,5,2,4,4,2,2,3,3,3,3,4,4,4,3,3,3,4,4,4,3,4,4,2,4,4,4,2,4,3,2,3,2,4,4,4,2,4,2,1,1,3,3,1,2,5,5,3,7,5,7,3,8,5,2,7,3,5,1,4,8,5,2,5,3,7,5,5,5,5,6,6,3,NA,5,5,5,7,7,3,5,4,4,4,5,4,4,4,4,4,5,6,5,4,7,6,6,4,4,1,3,4,2,5,3,3,2,4,2,4,2,3,3,4,5,4,1,3,4,3,4,4,4,4,2,3,3,3,3,5,4,5,3,4,2,2,4,3,4,3,3,4,3,3,2,2,2,4,5,3,4,3,2,2,2,2,4,2,3,2,5,4,4,2,3,5,4,2,2,5,3,4,3,3,3,1,1
"Serbia",1995,2,6,2,3,2,1,0,0,2,NA,36.55,36.4,36.7,44.870803833008,65,8,6,1,2,1,NA,4,4,5,NA,2,2,3,3,1,NA,2,7,1,NA,NA,1,1,NA,1,NA,NA,NA,NA,NA,NA,NA,NA,NA,NA,3,3,2,4,3,4,3,3,4,3,4,4,4,3,4,4,2,2,3,3,4,2,3,3,4,2,3,4,4,2,4,2,3,4,3,4,4,4,4,4,3,2,4,4,3,3,4,2,2,3,4,3,5,2,2,NA,2,3,2,3,2,2,5,4,2,5,3,7,4,5,4,3,5,4,4,3,4,4,4,7,7,4,4,5,5,4,5,5,4,2,3,3,3,5,4,4,4,4,4,2,2,2,2,2,2,2,2,4,2,2,2,2,2,3,2,3,3,2,1,2,3,3,3,3,2,4,2,3,2,2,2,5,2,3,2,3,4,4,3,3,4,3,4,3,2,2,2,2,2,3,4,4,2,4,2,2,3,3,3,4,2,2,2,2,4,2,2,4,4,2,3,4,4,4,3,3,4,2,4
"SMU",1995,2,4,2,4,2,1,0,0,2,NA,36.55,36.5,36.6,1.2931060791016,71,26,5,1,2,1,NA,4,4,5,NA,1,NA,4,4,2,8,2,8,1,NA,NA,1,1,NA,1,NA,NA,NA,NA,NA,NA,NA,NA,NA,NA,4,4,3,5,5,1,3,4,5,4,4,5,2,2,3,3,3,2,2,2,2,2,3,2,3,2,3,3,3,3,3,3,3,4,4,4,4,3,4,3,4,2,2,2,2,2,3,4,2,4,5,5,3,4,5,6,3,2,2,4,2,2,5,4,2,3,5,4,4,4,4,4,3,3,3,4,4,2,4,4,4,3,3,5,5,5,5,5,5,5,5,5,2,4,4,4,3,3,3,2,3,2,2,2,3,4,3,2,2,2,4,4,2,4,2,3,4,5,4,4,2,2,2,3,4,4,3,2,2,2,4,4,4,1,3,4,4,4,4,2,2,3,4,3,3,2,2,3,5,3,3,4,3,2,3,1,1,2,3,2,2,4,3,3,4,3,2,4,3,4,3,3,2,3,4,3,3,2,3
"Tsinghua",1995,2,7,2,3,2,1,0,0,2,0,36.55,36.3,36.8,30.580093383789,61,10,7,3,2,1,0,4,2,5,0,8,2,8,5,1,1,2,4,1,1,1,4,2,1,2,NA,NA,NA,NA,NA,NA,NA,NA,NA,NA,3,3,2,4,4,3,2,3,2,3,5,3,4,2,2,2,2,2,2,2,2,2,2,2,4,2,2,4,3,2,4,5,2,2,5,4,5,4,4,3,5,2,1,2,2,3,5,2,1,1,4,4,2,2,2,2,2,1,2,3,2,1,5,1,2,1,2,2,2,1,1,3,1,1,5,3,4,2,1,2,2,3,1,5,5,5,4,4,5,4,4,4,7,3,2,6,6,5,5,3,2,4,3,2,2,4,2,4,1,2,3,2,2,3,2,2,2,3,2,2,2,2,3,2,4,5,1,3,2,1,4,4,4,1,5,3,3,4,3,4,3,2,4,3,4,3,3,4,4,3,4,4,1,1,2,3,2,3,3,2,2,3,3,4,4,3,3,4,4,3,3,4,2,3,3,3,3,2,3
"Tsinghua",1995,1,7,1,2,2,1,0.6,0,2,0,36.55,36.6,36.5,30.580093383789,72,14,7,3,2,1,0,4,4,5,0,1,0,4,1,1,1,2,1,1,8,1,1,2,1,1,"ÉçÍÅÁªºÏ»á",NA,NA,NA,NA,20,NA,NA,NA,NA,3,4,4,4,4,4,2,3,2,3,2,4,4,2,3,2,3,3,3,3,2,4,4,1,3,4,2,3,4,3,4,4,4,3,3,4,4,4,4,4,4,2,4,3,4,4,4,2,3,3,5,5,3,3,6,6,3,2,3,5,5,6,3,5,3,6,3,4,3,3,4,2,3,3,3,3,5,3,2,4,5,3,3,4,4,2,3,3,4,4,4,4,6,4,4,5,5,5,6,2,2,2,2,4,2,4,4,4,4,2,2,2,2,4,2,2,2,1,2,2,2,3,4,4,4,4,2,2,4,4,2,4,4,4,2,2,2,2,4,4,2,2,4,2,2,2,2,4,2,4,4,2,2,2,2,2,4,2,2,2,2,4,2,2,4,2,4,4,2,4,2,2,2,4,2,4,4,4,2
"Poland",1995,2,7,1,4,2,1,9,4,2,NA,36.55,36.5,36.6,52.416702270508,81,0,9,1,1,1,NA,4,2,4,1,1,NA,4,4,1,NA,2,4,2,1,1,1,1,NA,2,"moderatorzy forum internetowego","-","-","-","-",4,0,0,0,0,2,1,2,1,3,4,1,1,1,3,4,2,4,3,3,4,4,3,4,3,3,2,2,4,4,4,2,5,4,4,5,2,1,5,2,5,4,4,4,5,5,1,4,4,1,4,4,2,1,1,1,1,2,2,1,1,1,7,1,1,1,1,6,2,1,2,2,6,2,1,2,2,2,2,1,1,1,1,5,6,6,2,2,5,4,3,4,3,2,3,4,3,2,2,2,2,3,3,2,3,2,2,4,4,3,4,4,1,2,4,4,2,1,5,3,4,4,5,4,4,2,2,5,5,2,4,2,4,2,2,4,5,5,2,4,4,4,3,5,2,1,2,4,5,3,4,2,4,3,2,4,3,2,4,2,1,2,2,2,1,2,4,4,2,4,1,2,2,4,4,2,2,4,1,4,3,2,2,4
"VCU",1995,2,6,1,5,2,1,1,0,2,NA,36.55555556,36.5,36.61111111,37.552200317383,81,14.44444444,5,1,2,1,NA,4,4,5,NA,3,1,6,6,2,1,2,4,3,1,1,1,2,1,1,NA,NA,NA,NA,NA,NA,NA,NA,NA,NA,5,5,5,5,5,4,5,5,5,5,5,5,5,4,4,5,2,2,3,4,4,3,3,4,5,2,5,1,1,1,1,1,1,1,1,4,4,1,1,1,1,1,1,1,1,1,1,1,1,1,1,1,2,1,1,1,3,1,1,1,1,1,1,5,1,1,1,1,1,1,1,1,1,1,1,1,1,1,1,1,1,1,1,5,5,5,5,5,5,4,4,4,2,2,3,2,2,2,2,2,2,1,2,2,1,1,2,4,1,2,2,2,2,2,2,3,4,4,3,3,4,4,2,2,4,4,4,4,2,4,2,4,1,1,1,1,4,2,2,2,1,2,4,2,4,4,4,4,4,4,4,4,2,2,2,2,5,4,4,2,2,4,2,4,4,2,2,4,4,2,2,4,4,4,2,2,4,4,2
"VCU",1995,2,7,2,4,2,1,3,0,2,NA,36.55555556,36.5,36.61111111,37.553802490234,74,8.888888889,5,1,2,1,NA,4,4,5,NA,8,8,3,8,2,8,2,4,3,8,1,1,1,NA,2,"Praise Dance Ministry",NA,NA,NA,NA,7,NA,NA,NA,NA,5,5,4,5,5,5,3,5,3,3,4,5,5,3,4,5,2,2,2,2,3,2,1,2,5,1,4,4,3,3,4,2,1,2,2,2,5,2,5,4,5,1,1,1,2,1,5,4,4,1,3,4,5,1,1,4,1,6,2,1,1,1,4,4,1,1,1,1,1,1,1,1,1,1,2,2,1,1,1,3,2,1,4,5,5,5,5,5,5,3,5,5,7,1,3,2,1,1,3,3,3,2,1,3,4,3,1,4,2,3,1,5,1,3,1,5,8,7,8,8,8,7,5,5,4,5,1,4,5,3,5,5,4,1,2,5,5,4,3,5,3,2,5,5,5,4,5,5,5,4,5,5,1,1,3,4,5,5,5,1,1,5,3,5,4,4,3,2,5,3,2,5,3,5,5,5,3,1,5
"VCU",1995,1,7,1,4,2,1,0,0,2,NA,36.55666667,36.83333333,36.28,37.552200317383,81,14.44444444,5,1,2,1,NA,4,4,4,1,8,5,3,3,1,NA,2,8,1,NA,NA,1,1,NA,1,NA,NA,NA,NA,NA,NA,NA,NA,NA,NA,5,5,4,4,5,5,1,3,4,1,4,5,5,2,2,3,4,1,1,2,3,2,3,3,5,3,3,2,4,2,4,2,2,2,2,3,4,2,4,3,4,2,2,2,2,2,4,1,1,1,1,1,2,1,1,1,1,1,1,1,1,1,1,1,1,1,1,1,1,1,1,1,1,1,1,1,1,1,1,1,1,1,1,5,5,5,5,5,5,3,5,5,2,4,4,4,4,4,4,1,2,1,1,1,1,1,1,2,1,1,4,2,2,1,3,4,4,4,4,2,3,3,4,2,5,5,4,2,3,2,3,3,2,2,2,2,2,4,2,3,2,4,2,3,4,5,3,5,5,4,4,4,1,1,1,2,5,3,3,2,2,5,2,4,4,3,2,5,4,3,3,2,2,3,3,2,3,3,3
"UCSB",1995,2,1,2,4,2,1,0,0,2,NA,36.58333333,36.55555556,36.61111111,34.43580627,80,8.333333333,5,1,2,1,NA,4,2,5,NA,8,5,6,6,1,NA,2,8,1,NA,NA,1,1,NA,1,NA,NA,NA,NA,NA,NA,NA,NA,NA,NA,1,1,2,1,1,1,1,1,1,1,5,1,3,5,4,5,1,1,2,1,5,4,5,4,5,5,5,2,5,2,5,5,1,2,5,5,5,1,5,5,1,1,1,1,1,1,5,7,7,7,7,7,7,7,7,1,7,1,7,7,7,7,7,7,7,7,1,7,1,7,7,7,1,1,1,1,1,1,7,1,1,1,1,5,5,5,5,5,5,5,5,5,7,6,5,5,5,6,7,4,5,1,4,5,5,3,5,5,3,4,1,5,3,4,1,4,3,5,5,5,6,5,5,2,2,5,5,5,1,2,5,2,5,1,1,5,5,1,5,5,4,5,5,5,5,5,5,1,1,5,4,4,5,4,5,5,5,5,5,5,5,5,5,5,5,5,5,5,5,5,5,5,1,5,5,5,5,5,5
"Serbia",1995,1,4,2,5,2,1,2,0,2,NA,36.6,36.6,36.6,44.818603515625,45,12,6,1,2,1,NA,4,2,5,NA,3,1,4,8,1,NA,2,4,1,NA,NA,2,1,NA,1,NA,NA,NA,NA,NA,NA,NA,NA,NA,NA,4,5,4,3,4,2,3,4,3,2,4,5,4,2,3,2,1,2,2,3,2,2,2,2,4,3,2,2,2,1,3,1,1,1,1,4,3,2,1,4,2,3,4,2,2,1,3,2,2,2,2,3,2,2,2,NA,2,NA,4,2,2,1,3,3,2,5,3,8,NA,5,4,4,6,NA,6,6,7,6,3,7,7,NA,5,3,3,2,5,4,3,2,3,4,6,5,5,3,3,3,4,2,2,1,2,2,2,1,2,4,2,2,1,2,2,2,3,3,4,2,1,1,2,7,5,4,5,4,1,2,1,1,1,5,3,2,3,2,3,2,2,2,2,3,3,3,2,1,2,2,2,4,4,2,4,4,2,1,4,5,4,4,1,2,4,3,4,2,3,3,2,2,1,1,3,2,1,1,1,4,1
"METU",1995,2,6,1,2,2,1,10,4,1,3,36.6,36.7,36.5,39.911697387695,66,5,3,2,2,1,NA,4,4,4,4,4,1,7,7,1,NA,2,8,1,NA,NA,1,1,NA,2,"??renci toplulu?u","??renci toplulu?u",NA,NA,NA,4,5,NA,NA,NA,4,3,3,4,3,2,2,4,3,2,3,2,3,3,3,3,2,3,2,3,3,3,3,3,3,2,2,2,2,3,2,4,1,1,1,3,4,4,4,4,4,2,2,1,2,3,2,5,3,6,5,6,4,2,4,5,4,3,5,4,4,2,6,5,2,3,5,5,6,6,2,2,5,5,3,2,3,3,2,3,5,2,3,4,4,3,3,4,4,2,3,3,6,6,6,6,5,5,4,2,3,1,3,3,2,3,3,4,3,4,2,2,3,4,3,5,5,5,2,4,1,1,1,4,2,4,3,4,3,2,4,2,4,1,3,4,4,2,5,5,2,4,4,4,4,3,3,4,3,3,4,3,2,3,2,4,3,3,2,4,2,3,4,4,2,4,2,4,2,4,4,4,3,4,4,4,4,2,4
"Serbia",1995,2,6,2,3,2,1,2,0,2,NA,36.6,36.4,36.8,44,45,12,6,1,2,1,NA,4,2,5,NA,1,NA,1,3,2,1,2,6,1,NA,NA,1,2,3,1,NA,NA,NA,NA,NA,NA,NA,NA,NA,NA,4,5,4,4,4,5,4,4,5,2,5,3,3,3,4,3,3,3,2,4,3,2,3,4,4,2,3,2,2,1,2,1,2,3,3,4,4,4,4,4,4,1,3,2,2,4,4,5,2,4,5,5,2,5,5,NA,4,NA,4,5,5,2,8,5,4,4,4,8,4,5,2,5,6,6,6,6,6,3,2,7,7,6,4,4,4,3,3,3,4,4,4,3,5,5,5,4,6,6,6,3,3,1,3,4,2,4,3,1,3,2,2,2,2,1,2,4,6,7,5,5,5,5,2,2,1,5,4,4,3,2,3,2,2,4,2,4,2,3,5,4,4,4,3,4,3,3,3,3,2,3,3,4,1,3,3,3,2,5,4,2,2,3,3,4,3,2,2,2,4,4,3,4,3,3,2,2,3,4,4
"Bamberg",1995,2,7,1,4,2,1,0,0,2,NA,36.6,36.3,36.9,49.436096191406,79,4,1,1,2,1,NA,4,4,4,1,8,3,8,8,1,NA,2,8,1,NA,NA,1,1,NA,1,NA,NA,NA,NA,NA,NA,NA,NA,NA,NA,3,2,4,4,3,4,3,4,4,4,4,3,4,2,3,3,2,2,2,3,3,3,3,4,4,2,2,2,2,2,4,2,1,1,2,4,4,3,3,3,2,1,2,2,2,2,2,3,2,3,2,3,5,2,2,2,5,3,5,3,2,5,5,4,2,2,2,3,2,3,2,2,4,4,2,3,1,3,2,4,4,2,4,5,5,5,5,5,5,4,5,5,4,3,5,5,4,2,3,2,3,2,3,4,2,3,2,2,2,2,2,2,1,2,2,5,8,6,6,6,4,6,3,4,4,4,2,2,1,1,2,5,4,2,3,4,3,2,2,2,2,4,4,4,4,4,4,3,3,4,3,3,2,2,2,3,2,4,3,4,2,2,3,4,3,3,3,4,4,4,4,4,2,3,2,3,2,2,2
"Oxford",1995,2,5,2,3,2,1,0,0,2,NA,36.6,36.4,36.8,51.75,71,1.666666667,5,1,2,1,NA,4,4,5,NA,8,1,7,7,1,NA,2,8,1,NA,NA,2,1,NA,2,"Boat club","Committee",NA,NA,NA,9,12,NA,NA,NA,1,1,2,2,1,1,2,1,1,4,3,2,2,2,3,5,3,3,2,3,4,3,4,3,5,4,4,4,4,2,4,2,2,2,1,4,4,4,2,5,1,1,4,4,1,1,2,1,1,1,1,1,4,1,1,7,5,1,1,1,1,5,1,1,1,5,3,6,2,3,6,7,1,2,1,3,2,2,7,7,2,2,7,4,5,5,5,5,5,2,4,4,6,7,5,6,7,7,6,5,4,1,4,5,4,4,4,5,5,3,1,2,3,2,2,5,7,6,3,6,4,6,3,3,4,5,1,1,4,2,2,5,2,2,4,4,3,4,3,5,5,3,2,4,3,5,5,5,5,4,2,5,5,1,5,4,5,5,4,3,2,4,2,4,5,5,1,4,4,4,4,4,1,4,4,4,1,2,4
"Oslo",1995,2,7,2,3,2,1,NA,NA,2,NA,36.6,36.7,36.5,59.912704467773,69,-4,4,1,2,1,NA,4,4,5,NA,3,3,8,8,2,3,2,8,1,NA,NA,1,1,NA,2,"Kristen menighet","Kor",NA,NA,NA,2,4,0,0,0,3,3,3,4,4,4,4,4,3,4,4,2,3,3,2,2,2,2,1,2,2,2,2,2,4,1,1,3,4,2,4,2,2,2,3,4,4,4,4,4,2,1,2,2,2,2,2,4,4,4,4,4,4,4,4,4,4,4,4,4,4,4,4,4,4,4,4,4,4,4,4,4,4,4,4,4,4,4,4,4,4,4,4,4,4,4,4,4,4,4,4,4,4,5,6,5,6,4,4,2,2,3,2,2,3,3,2,2,2,2,3,2,2,3,2,4,4,5,3,3,2,3,2,4,3,5,4,4,3,2,4,2,2,1,2,2,4,2,2,3,3,3,2,1,4,4,4,3,3,4,3,3,3,2,3,2,4,3,3,4,2,2,2,4,4,3,2,4,4,4,3,5,2,2,4,4,4,2,2
"Tsinghua",1995,2,7,1,2,2,1,0,0,2,0,36.6,36.6,36.6,30.666702270508,86,16,7,3,2,1,0,4,4,5,0,4,1,5,4,1,1,2,3,1,1,1,2,2,1,2,NA,NA,NA,NA,NA,NA,NA,NA,NA,NA,3,1,2,2,4,4,1,3,2,1,3,1,4,4,2,5,3,3,2,3,4,2,3,4,4,4,2,2,3,2,4,3,2,4,4,4,4,2,3,2,2,2,2,2,2,2,4,7,7,7,7,7,7,7,7,7,7,7,7,7,4,5,7,6,7,5,2,1,1,2,1,1,6,7,1,7,3,2,2,1,1,1,7,4,2,4,4,1,4,4,3,3,6,3,4,7,7,7,7,4,4,5,2,2,5,2,4,2,3,2,2,2,1,3,2,5,6,7,3,6,2,3,3,4,1,1,2,3,4,2,2,4,2,1,2,4,4,4,2,4,4,4,4,3,2,4,4,3,2,3,4,2,2,4,4,4,4,2,4,2,1,4,2,4,3,4,4,4,2,4,4,4,4,4,4,3,3,2,2
"Poland",1995,2,5,1,3,2,1,10,2,2,NA,36.6,36.6,36.6,50.316696166992,86,-1,9,1,2,1,NA,4,2,4,1,8,6,6,6,2,8,2,7,2,1,1,1,1,NA,1,NA,NA,NA,NA,NA,NA,NA,NA,NA,NA,4,4,3,4,5,5,3,4,3,3,5,5,3,4,4,3,4,4,4,3,3,4,3,4,4,4,3,3,4,2,3,4,2,4,4,3,4,3,4,4,4,4,2,3,2,3,4,3,5,2,4,6,2,5,1,2,2,5,2,5,1,1,5,5,1,2,1,2,1,2,1,2,2,2,2,1,2,2,2,3,4,2,1,5,5,5,5,5,4,4,5,5,6,4,5,4,6,5,6,2,2,1,2,3,4,2,3,3,2,4,2,2,2,2,2,4,4,7,4,5,1,6,2,4,3,5,4,4,3,4,4,4,2,2,2,3,3,2,2,4,3,4,3,4,4,4,4,5,5,5,5,5,1,1,2,1,2,4,3,2,2,3,3,3,4,3,2,5,5,5,5,5,3,4,5,4,4,2,4
"Serbia",1995,2,6,1,4,2,1,0,0,2,NA,36.6,36.4,36.8,44.818603515625,44,12,6,1,2,1,NA,4,2,5,NA,4,4,5,5,1,NA,2,4,1,NA,NA,1,2,4,1,NA,NA,NA,NA,NA,NA,NA,NA,NA,NA,4,2,2,5,2,1,2,1,2,2,2,5,5,4,2,2,2,2,2,1,4,3,2,2,4,2,2,4,5,4,4,4,5,4,4,5,5,4,4,3,5,3,2,2,4,5,4,4,8,5,5,5,8,2,5,6,1,4,1,4,7,5,2,2,4,4,NA,2,1,5,2,2,1,NA,NA,1,NA,1,7,6,7,6,NA,4,4,4,4,5,2,2,4,4,3,2,2,5,4,4,5,4,2,2,2,4,2,4,3,5,2,2,2,2,2,2,2,4,3,4,3,3,4,4,4,3,2,4,1,1,4,4,2,4,4,2,4,4,2,2,4,4,4,5,5,4,5,4,1,1,1,2,4,4,4,2,1,1,5,5,5,5,1,5,4,2,2,4,2,4,4,4,4,4,4,4,5,5,5,2,5
"Poland",1995,2,7,1,3,2,1,3,4,2,NA,36.605,36.67,36.54,53.600006103516,60,1,9,1,2,1,NA,4,4,4,4,8,8,5,5,2,1,2,8,3,1,5,1,1,NA,1,NA,NA,NA,NA,NA,NA,NA,NA,NA,NA,4,4,5,3,3,4,2,4,4,3,1,3,4,3,3,3,4,4,4,4,3,4,4,3,3,4,3,4,4,2,4,2,3,4,2,3,4,4,4,4,4,1,2,2,2,4,4,2,5,1,5,5,2,1,2,6,2,4,1,1,2,1,6,4,2,4,2,6,2,1,2,6,2,2,2,2,2,4,1,4,7,2,5,5,5,5,5,5,5,4,5,5,2,1,3,2,2,2,2,3,1,4,2,2,1,4,3,2,2,2,3,2,2,3,2,3,3,6,2,2,2,2,4,2,2,4,4,4,3,2,4,2,2,2,3,4,3,3,3,2,3,4,4,2,4,4,2,4,4,3,4,4,4,4,3,2,2,3,3,1,2,3,4,4,3,2,1,3,4,4,4,3,3,3,4,3,3,2,3
"VCU",1995,2,7,2,3,2,1,0,0,2,NA,36.61111111,36.72222222,36.5,37.552200317383,94,13.33333333,5,1,2,1,NA,4,4,5,NA,5,1,7,7,1,NA,2,5,1,NA,NA,1,1,NA,1,NA,NA,NA,NA,NA,NA,NA,NA,NA,NA,3,3,2,2,2,3,2,3,2,2,3,2,2,3,4,5,3,3,3,3,3,3,3,4,4,3,3,4,3,3,4,3,3,3,3,4,4,4,4,4,4,3,3,3,3,3,3,4,5,4,6,6,6,4,6,4,4,4,4,5,4,5,4,4,4,4,3,4,3,4,4,3,4,4,4,4,5,4,4,4,3,3,4,4,4,4,4,4,4,3,3,4,7,4,4,4,6,5,5,3,4,3,3,3,3,3,3,3,4,4,3,3,1,3,2,3,3,4,3,5,3,3,4,3,3,4,3,3,4,4,4,4,3,2,3,4,3,4,5,2,3,3,4,3,4,4,3,4,4,4,4,4,3,3,3,2,3,3,3,1,2,3,3,3,3,3,2,3,4,3,3,2,3,4,3,3,4,2,3
"VCU",1995,2,4,2,5,2,1,1,0,2,NA,36.63888889,36.72222222,36.55555556,37.130004882812,87,13.88888889,5,1,2,1,NA,4,4,5,NA,3,3,7,7,1,NA,2,5,3,5,7,1,2,5,1,NA,NA,NA,NA,NA,NA,NA,NA,NA,NA,2,1,4,2,2,1,1,2,2,3,4,2,5,5,4,5,2,2,2,3,4,2,3,4,5,4,4,1,3,1,4,1,1,1,4,1,4,4,4,5,4,1,1,1,1,1,5,2,1,1,2,1,1,2,3,2,1,2,2,1,1,1,1,1,1,1,2,7,5,3,7,7,6,6,3,6,2,2,6,6,6,6,6,4,5,5,5,5,5,5,5,5,6,2,4,5,5,4,5,1,1,1,4,1,1,1,1,1,1,2,2,2,1,2,2,5,7,6,7,7,5,1,2,1,4,3,4,4,3,3,5,2,2,4,1,1,4,1,5,3,2,1,4,4,4,1,2,1,5,3,2,5,3,2,4,4,5,4,4,1,1,3,4,2,5,1,2,4,4,1,1,1,2,4,1,1,2,2,4
"UCSB",1995,2,7,1,5,1,1,0,0,2,NA,36.63888889,36.05555556,37.22222222,34.4329071,83,11.11111111,5,1,2,1,NA,4,2,5,NA,3,3,7,7,1,NA,2,4,3,1,4,5,1,NA,2,"kp ucsb",NA,NA,NA,NA,7,NA,NA,NA,NA,4,4,2,2,4,4,2,2,3,1,4,4,3,3,3,3,1,2,2,2,3,2,2,3,4,1,2,2,4,2,4,3,2,4,4,2,4,4,4,4,4,1,2,2,2,2,4,2,2,1,2,1,2,2,5,2,1,6,2,2,2,2,1,2,2,2,2,3,2,2,2,2,3,2,2,3,2,1,1,4,2,1,2,4,3,3,4,4,3,2,2,5,1,1,1,1,1,2,1,1,2,2,2,1,2,2,2,2,2,2,2,4,2,4,2,4,4,4,3,5,2,4,4,2,3,3,2,2,2,4,3,4,2,2,3,2,2,2,2,3,2,3,2,4,4,4,2,4,3,4,4,3,2,2,2,2,2,4,4,4,2,4,4,3,3,3,4,4,4,3,2,2,2,2,2,2,2,4,2
"Tsinghua",1995,2,7,2,3,2,1,0,0,2,0,36.65,36.6,36.7,30.580093383789,74,16,7,3,2,1,0,4,2,5,0,4,4,7,5,1,1,2,8,1,1,8,4,2,1,2,"N","N","N","N","N",0,0,0,0,0,2,4,3,3,3,4,3,2,3,3,4,3,3,2,4,4,3,4,3,3,4,4,4,3,3,3,2,4,4,1,4,2,3,1,1,4,4,2,3,2,4,2,2,2,2,2,3,4,1,3,1,5,5,1,4,1,4,1,1,4,2,1,4,6,1,2,1,3,1,1,5,1,1,1,1,1,5,1,4,5,3,1,4,4,4,4,4,4,4,4,4,4,2,2,4,3,2,3,3,2,2,1,2,2,2,2,2,3,3,2,4,2,1,2,2,3,4,4,2,3,1,4,2,4,5,5,4,3,3,3,3,4,2,2,3,4,3,3,2,4,2,2,3,4,3,3,3,4,4,3,4,4,2,2,2,2,4,4,4,4,2,4,3,3,4,3,3,5,3,4,3,4,2,4,4,3,4,4,4
"Oslo",1995,2,5,1,4,2,1,NA,NA,2,NA,36.65,36.7,36.6,59.890701293945,95,1,4,1,2,1,NA,4,4,4,2,4,4,5,5,1,NA,2,6,1,NA,NA,1,1,NA,1,NA,NA,NA,NA,NA,NA,NA,NA,NA,NA,3,4,4,4,4,4,4,5,4,4,4,4,4,2,3,3,2,3,3,2,4,3,2,3,5,2,3,3,3,3,3,3,2,3,3,4,3,4,4,4,4,3,3,4,2,3,3,2,2,1,2,6,3,2,4,2,2,3,4,2,2,2,3,2,2,2,2,6,4,3,6,2,2,1,3,2,3,2,4,2,4,4,2,5,5,5,5,4,4,4,4,4,7,5,5,5,5,4,4,4,2,2,3,3,4,3,3,2,3,4,4,2,4,3,3,4,4,5,2,1,2,2,2,3,2,4,3,3,4,2,4,3,2,2,2,3,3,2,3,2,3,3,4,2,4,4,4,4,4,4,4,4,2,2,2,2,3,3,4,3,3,4,3,3,3,3,3,4,4,4,4,4,3,3,4,4,3,3,3
"Tsinghua",1995,1,7,2,3,2,1,7,0,2,0,36.65,36.7,36.6,30.580093383789,87,17,7,3,2,1,0,4,1,4,3,5,3,3,3,2,3,2,3,3,3,5,4,1,4,1,"½ÌÔºÖ¾Ð­","ÊýÑ§½¨Ä£",NA,NA,NA,5,4,NA,NA,NA,2,4,4,2,2,4,2,4,2,2,3,3,4,3,4,2,2,2,2,3,3,2,4,3,4,2,2,3,3,3,3,3,2,4,4,3,4,4,4,4,4,4,2,3,3,3,4,4,4,3,3,5,4,5,4,3,3,4,3,4,5,4,3,4,3,4,3,4,2,4,5,4,4,4,5,3,3,3,5,5,5,5,5,4,4,4,4,4,4,3,4,4,7,2,4,5,6,6,3,3,4,3,3,3,4,4,3,4,3,3,2,4,3,3,2,2,2,7,2,3,3,3,2,4,4,4,2,3,3,2,3,4,4,2,3,4,4,3,2,4,2,2,4,4,4,3,3,4,4,3,4,4,4,3,3,3,4,4,4,4,2,4,4,4,4,2,2,4,4,3,4,4,4,4,4,4,4,4,2
"Serbia",1995,2,6,1,5,2,1,0,0,1,10,36.65,36.6,36.7,44.818603515625,44,12,6,1,1,1,NA,4,4,4,1,7,5,8,8,1,NA,2,7,1,NA,NA,1,1,NA,1,NA,NA,NA,NA,NA,NA,NA,NA,NA,NA,5,2,2,4,4,4,2,1,4,2,5,4,4,2,3,2,2,1,1,4,2,2,1,2,4,1,2,2,4,4,3,5,4,3,1,3,2,4,1,4,1,3,4,4,1,3,4,5,1,2,5,4,5,2,3,NA,1,1,1,1,1,1,2,2,2,1,1,8,1,3,1,8,1,1,1,1,1,1,1,7,6,1,1,2,2,3,2,2,2,1,5,5,5,5,6,5,6,5,6,2,2,1,2,1,1,2,4,1,1,2,1,1,1,1,1,5,6,6,2,4,4,5,2,5,2,5,1,5,5,5,5,5,5,2,5,4,2,5,4,5,5,5,2,5,5,1,1,4,1,4,5,5,2,5,1,1,2,5,4,2,2,1,2,4,4,4,1,4,4,5,5,5,1,2,5,4,4,1,1
"Serbia",1995,2,7,1,4,2,1,18,0,2,NA,36.65,36.7,36.6,44.818603515625,45,12,6,1,1,1,NA,4,4,1,NA,2,2,4,3,1,NA,2,3,1,NA,NA,1,1,NA,1,NA,NA,NA,NA,NA,NA,NA,NA,NA,NA,4,3,4,5,3,4,3,3,2,2,3,2,2,4,4,4,2,3,3,3,3,3,3,5,4,2,3,2,3,3,3,4,4,4,2,4,5,5,5,3,4,1,1,1,3,3,5,4,2,1,1,1,5,8,1,4,1,7,1,2,2,1,1,4,1,1,1,2,1,4,1,1,7,NA,1,1,1,1,1,4,3,1,1,5,4,4,4,5,5,5,5,4,4,5,5,4,5,5,5,5,4,3,4,4,4,5,4,3,3,4,2,2,2,4,2,5,8,6,6,6,6,8,2,4,2,4,3,3,4,3,3,2,4,3,1,2,4,5,2,5,3,5,4,1,5,4,1,1,2,3,4,4,3,3,1,3,4,4,4,2,2,4,4,3,4,4,2,4,4,5,5,4,3,4,4,4,3,3,5
"SMU",1995,2,7,2,4,2,1,0,0,2,NA,36.65,36.8,36.5,1.2931060791016,70,27,5,1,2,1,NA,4,4,5,NA,2,2,6,5,2,8,2,8,1,NA,NA,1,2,3,2,"Sports Club",NA,NA,NA,NA,5,NA,NA,NA,NA,3,4,3,2,4,4,3,4,3,1,2,3,2,5,3,5,4,5,3,5,5,2,5,3,5,2,5,2,5,3,5,2,4,4,2,2,3,4,4,4,2,2,2,2,2,2,4,6,3,6,3,4,6,3,6,3,3,3,5,3,3,5,3,6,2,5,2,3,5,7,3,3,6,5,2,2,2,5,2,3,3,6,2,5,4,5,5,5,5,3,5,5,6,5,6,5,5,5,5,2,2,1,2,1,2,5,2,2,2,1,2,2,2,4,1,5,6,6,5,5,6,4,2,4,4,4,3,2,4,4,4,4,4,1,5,4,3,2,1,3,2,5,4,5,5,4,3,5,4,4,5,1,2,4,2,4,4,5,2,4,2,3,2,5,2,4,2,3,4,2,3,3,3,4,4,5,4,1,3
"METU",1995,2,6,2,3,2,1,NA,NA,2,NA,36.65,36.5,36.8,39.911697387695,74,12,3,2,2,1,NA,4,2,5,NA,2,2,5,5,2,2,2,6,1,NA,NA,1,1,NA,1,NA,NA,NA,NA,NA,NA,NA,NA,NA,NA,4,1,2,5,3,5,2,3,1,3,3,2,2,3,3,3,3,3,2,3,3,3,3,3,3,3,3,5,5,3,5,5,3,5,4,5,4,4,4,4,4,3,2,3,3,5,4,6,4,1,4,4,5,6,4,6,4,7,4,2,4,2,7,4,1,2,2,5,2,7,1,1,3,2,2,1,2,2,1,4,3,2,3,5,5,4,5,5,4,4,2,4,5,7,7,7,7,6,6,3,3,4,3,4,3,4,3,2,3,3,2,4,3,4,4,5,5,6,4,5,4,3,2,1,5,5,4,1,3,5,1,5,5,1,4,5,4,5,5,5,3,5,4,3,4,5,5,5,5,5,5,5,1,1,1,1,1,2,2,5,2,3,3,2,3,2,2,5,4,5,4,5,2,2,5,3,2,5,2
"VCU",1995,2,7,2,4,2,1,0,0,2,NA,36.66666667,36.72222222,36.61111111,37.347900390625,61,10.55555556,5,1,2,1,NA,4,2,5,NA,2,2,6,4,1,NA,2,4,3,1,8,1,1,NA,1,NA,NA,NA,NA,NA,NA,NA,NA,NA,NA,4,4,3,2,3,4,3,4,3,4,4,5,4,2,3,2,2,2,1,2,2,2,2,2,4,2,2,1,4,1,3,1,1,1,2,4,2,2,2,1,2,1,1,2,1,2,2,3,5,2,6,5,3,2,2,6,2,2,2,2,1,3,5,2,6,6,5,7,3,5,6,5,5,5,3,3,3,2,5,7,7,6,2,5,3,4,5,3,4,3,4,3,4,5,5,3,5,4,4,1,2,1,1,1,1,1,1,1,1,1,1,2,1,3,1,3,3,4,3,3,1,1,1,2,1,5,4,5,2,1,5,2,1,1,1,2,4,1,1,4,1,1,5,2,4,1,4,3,3,4,3,3,3,2,3,4,4,4,2,2,4,4,2,4,2,1,1,3,5,1,1,2,5,4,2,2,4,2,4
"UCSB",1995,1,7,1,5,2,1,4,0,2,NA,36.66666667,36.38888889,36.94444444,34.4329071,47,9.444444444,5,1,2,1,NA,4,4,4,4,8,2,8,8,1,NA,2,8,1,NA,NA,1,1,NA,2,"Taiwanese American Student Association",NA,NA,NA,NA,30,NA,NA,NA,NA,2,2,2,2,3,3,2,2,2,2,2,4,4,3,3,3,2,2,2,2,3,2,3,2,4,3,3,2,3,2,3,2,2,2,2,3,3,3,2,4,2,1,1,1,1,2,2,4,3,2,4,4,5,4,2,2,2,2,2,2,2,2,2,6,3,2,2,2,2,2,2,2,2,2,2,2,2,2,2,3,2,2,2,5,5,5,5,5,4,3,4,4,7,7,7,7,7,7,7,3,3,2,2,3,2,4,2,2,3,2,1,2,2,2,2,5,5,4,2,3,5,5,4,4,4,4,2,2,2,4,2,4,4,2,4,4,2,4,2,2,4,5,2,2,4,4,4,5,5,4,4,4,2,2,2,4,2,4,2,2,2,4,4,4,4,4,4,4,4,4,4,4,2,4,4,4,4,4,2
"VCU",1995,2,7,1,4,2,1,8,0,2,NA,36.66666667,36.38888889,36.94444444,37.553802490234,81,14.44444444,5,1,2,1,NA,4,4,4,1,5,5,6,6,2,8,2,4,1,NA,NA,2,2,1,2,NA,NA,NA,NA,NA,NA,NA,NA,NA,NA,5,4,5,5,5,5,5,5,5,5,5,5,5,1,3,3,1,1,2,1,3,2,2,3,5,2,1,3,5,4,4,3,2,5,2,4,4,4,4,4,2,2,2,2,2,2,2,2,2,2,2,1,4,1,1,2,1,2,2,2,2,1,2,1,1,1,1,6,2,2,1,1,2,2,1,2,2,1,2,6,6,2,2,4,4,4,4,4,4,4,4,4,3,2,4,2,2,2,3,2,2,2,2,2,2,2,2,2,2,2,2,4,1,3,2,4,5,6,5,5,5,5,2,4,2,4,2,4,2,4,2,4,2,2,4,4,2,4,4,3,2,2,5,5,3,5,4,4,4,4,4,4,2,2,2,2,4,4,2,2,2,4,3,3,4,2,2,4,4,2,2,2,4,4,2,3,3,4,4
"VCU",1995,2,1,1,4,2,1,0,0,2,NA,36.69444444,36.38888889,37,37.552200317383,81,14.44444444,5,1,1,1,NA,4,4,4,2,6,2,8,5,2,1,2,8,3,1,8,1,1,NA,1,NA,NA,NA,NA,NA,NA,NA,NA,NA,NA,3,4,3,4,3,2,1,4,3,3,4,4,2,2,2,3,1,1,1,2,2,2,2,1,3,2,2,4,4,3,4,1,1,1,4,2,2,5,4,4,4,1,4,1,4,1,1,2,2,1,2,6,6,2,5,6,3,2,2,2,1,1,6,5,5,2,1,6,1,2,2,2,1,2,1,1,2,1,1,4,3,3,3,5,5,5,5,5,1,5,5,1,7,4,5,6,4,5,4,4,4,1,4,4,1,4,4,4,1,1,1,1,2,2,4,5,6,5,2,3,4,1,2,2,4,5,4,1,2,5,2,2,1,1,5,4,4,5,4,2,2,4,4,4,2,4,2,4,2,4,3,3,1,4,4,1,2,4,2,2,1,2,5,2,1,1,4,2,5,4,3,4,4,5,1,2,2,5,2
"Tsinghua",1995,1,5,2,4,2,1,1,0,2,0,36.7,36.7,36.7,30.666702270508,91,13,7,3,2,1,0,4,4,5,0,8,3,6,3,1,1,2,2,1,1,1,1,2,1,2,NA,NA,NA,NA,NA,NA,NA,NA,NA,NA,3,5,4,3,4,5,1,3,2,2,5,4,2,2,4,3,2,2,1,2,4,2,1,4,5,2,2,1,2,2,2,1,1,1,1,3,4,1,3,4,1,1,1,1,1,1,3,4,2,1,2,6,4,4,2,2,2,1,2,6,1,1,5,5,2,2,2,2,6,2,4,6,3,2,2,2,5,3,2,2,2,2,2,5,5,5,5,5,3,3,3,5,4,2,2,1,2,2,2,1,4,4,3,4,2,2,3,3,2,3,2,3,1,4,2,4,5,4,2,2,2,3,2,2,5,5,4,1,1,1,1,3,3,3,3,2,2,3,4,4,3,3,3,3,3,3,3,5,5,4,4,4,2,1,2,1,1,2,4,4,4,4,3,4,3,2,1,1,1,1,2,3,1,1,3,1,4,3,4
"Tsinghua",1995,1,7,2,3,2,1,1,1,2,0,36.7,36.7,36.7,30.666702270508,89,12,7,3,2,1,0,4,4,5,0,8,3,8,8,1,1,2,8,1,1,8,8,2,1,2,NA,NA,NA,NA,NA,NA,NA,NA,NA,NA,4,3,3,3,3,3,3,2,3,3,4,1,3,3,3,3,3,3,3,3,3,3,3,3,3,3,3,2,2,2,3,2,2,2,2,2,4,2,2,4,2,2,2,2,2,2,2,4,4,4,4,4,4,4,4,4,4,4,4,4,4,4,4,4,4,4,4,4,4,4,4,4,4,4,4,4,4,4,4,4,4,4,4,4,4,4,3,4,4,4,4,4,6,2,2,7,7,7,7,2,2,2,4,2,2,2,2,2,2,2,4,2,4,2,4,4,6,4,6,6,4,6,2,2,2,2,2,2,2,2,2,2,2,2,2,2,2,2,2,2,2,2,2,2,2,2,2,2,2,2,2,2,2,2,2,2,2,2,3,3,3,3,3,3,3,3,3,4,4,4,4,4,4,4,4,4,3,3,3
"Serbia",1995,1,2,1,3,2,1,0,0,2,NA,36.7,36.8,36.6,44.818603515625,68,7,6,1,2,1,NA,4,2,4,3,4,3,4,4,1,NA,2,3,1,NA,NA,3,1,NA,1,NA,NA,NA,NA,NA,NA,NA,NA,NA,NA,1,4,3,3,4,2,4,2,4,4,2,4,4,4,3,3,3,3,2,3,3,2,3,2,2,2,2,2,2,3,1,2,3,1,3,3,3,2,3,3,4,3,4,4,3,4,2,4,4,3,4,3,4,2,3,5,4,5,4,2,4,2,3,5,4,4,3,5,6,8,2,2,4,NA,4,5,6,4,5,4,NA,4,6,3,3,2,4,3,5,5,4,3,1,2,2,1,2,3,2,2,1,2,3,3,2,1,2,2,3,4,4,2,3,1,4,1,1,1,2,2,1,5,3,3,3,3,3,3,3,3,5,3,3,4,2,3,3,2,2,4,3,3,4,3,3,4,2,3,3,4,3,4,3,4,3,3,3,3,3,4,3,3,4,3,4,3,3,3,4,3,2,3,3,3,3,4,3,1,3
"Tsinghua",1995,2,7,2,2,2,1,9,0,2,0,36.7,36.5,36.9,30.580093383789,66,13,7,3,2,1,0,4,4,5,0,8,1,8,8,1,1,2,8,1,1,8,1,2,1,2,"na","na","na","na","na",NA,NA,NA,NA,NA,3,4,2,4,1,4,1,2,2,3,3,3,4,3,3,4,2,3,1,3,3,3,3,2,5,2,2,1,3,1,4,1,2,3,3,4,2,1,1,1,1,1,1,1,1,1,1,5,4,2,5,5,4,2,5,2,5,3,5,3,1,5,4,6,3,3,1,1,2,1,2,2,2,2,1,4,2,2,2,2,1,1,6,5,5,4,5,5,5,5,5,5,2,2,4,3,3,3,3,3,2,1,3,2,2,3,2,2,4,3,2,4,2,4,2,2,2,4,2,3,1,2,2,4,4,4,2,4,5,3,2,4,3,1,3,2,4,2,4,5,2,2,1,3,4,3,4,4,5,4,5,5,1,1,2,3,3,3,3,2,1,4,2,4,4,3,2,4,4,4,3,4,2,4,4,3,3,2,4
"SMU",1995,2,6,2,4,2,1,0,0,2,NA,36.7,36.7,36.7,1.2931060791016,79,26,5,1,2,1,NA,4,4,5,NA,8,6,6,4,2,1,2,7,1,NA,NA,1,1,NA,2,"VUCA Project Group","Business Law Project Group",NA,NA,NA,5,1,NA,NA,NA,4,4,5,4,5,4,4,4,4,4,4,4,4,3,3,4,2,2,2,3,3,2,2,3,4,2,3,2,4,2,4,4,2,3,2,2,3,2,4,3,3,2,3,2,3,2,4,6,3,4,5,5,5,4,3,3,2,3,4,5,2,3,6,3,2,3,3,4,3,4,3,3,3,4,3,2,4,3,3,2,3,3,3,4,4,4,4,4,4,4,4,4,5,5,5,5,3,5,5,2,2,2,2,2,2,2,2,3,2,2,2,2,2,3,2,3,4,5,1,4,1,3,2,4,4,4,2,3,3,4,4,4,3,2,3,4,4,3,4,4,2,4,4,4,4,3,4,4,4,4,4,4,2,2,3,2,3,4,4,2,2,4,3,3,4,4,2,4,4,4,4,4,2,4,5,4,2,2,4
"Tsinghua",1995,2,7,2,3,2,1,0,0,2,0,36.7,36.7,36.7,NA,72,14,7,3,2,1,0,4,2,5,0,8,2,5,2,1,1,2,6,1,1,8,1,1,1,2,NA,NA,NA,NA,NA,NA,NA,NA,NA,NA,4,3,3,4,2,3,1,3,4,4,4,3,3,2,3,3,3,4,3,4,2,3,4,2,3,3,2,3,4,3,4,2,3,3,4,4,4,4,4,4,3,3,2,2,2,4,4,6,5,5,6,5,3,5,5,5,4,5,3,4,2,5,3,5,3,2,2,3,2,3,3,4,3,3,4,2,5,2,5,2,3,4,4,5,4,4,3,4,5,3,5,5,4,1,5,3,4,4,5,2,3,2,2,2,3,4,2,3,2,3,3,3,2,3,2,5,3,7,6,6,4,3,1,5,4,4,1,5,3,3,4,5,3,1,2,4,4,1,4,4,3,4,3,4,4,3,4,3,3,2,3,3,3,3,3,2,5,4,4,2,2,4,3,4,4,3,1,4,3,2,3,3,3,2,2,2,2,2,4
"Oslo",1995,2,6,2,4,2,1,0,0,2,NA,36.7,36.8,36.6,59.912704467773,69,-4,4,1,2,1,NA,4,4,5,NA,4,2,7,7,1,NA,2,8,3,1,3,1,1,NA,1,NA,NA,NA,NA,NA,NA,NA,NA,NA,NA,2,4,4,4,3,3,2,3,2,4,4,3,4,3,2,3,2,3,3,2,3,3,2,3,3,2,3,3,3,3,4,4,3,4,3,4,4,4,4,4,4,3,3,3,3,3,3,4,4,4,5,5,5,4,4,4,4,4,4,4,2,5,4,4,4,2,4,5,5,4,3,5,4,4,4,4,4,4,5,4,4,4,4,4,4,5,5,5,5,5,4,5,3,6,5,5,5,4,4,2,3,3,3,3,2,2,3,3,1,2,2,3,2,2,2,3,4,4,1,1,2,3,1,3,2,5,4,4,3,2,3,3,2,1,3,4,4,2,3,3,3,3,3,3,4,4,4,3,3,3,3,3,2,2,3,2,4,3,2,3,3,2,2,4,4,3,3,4,4,3,4,4,2,4,3,3,3,3,2
"SMU",1995,2,1,1,4,2,2,3,0,2,NA,36.7,36.6,36.8,1.2931060791016,79,26,5,1,2,1,NA,4,4,5,NA,8,6,8,6,2,1,2,8,1,NA,NA,4,2,4,1,NA,NA,NA,NA,NA,NA,NA,NA,NA,NA,2,2,3,3,2,3,1,2,2,3,5,2,2,4,3,4,1,2,2,3,4,3,2,3,4,2,4,4,2,2,4,4,4,4,4,4,4,3,5,4,2,2,4,2,3,3,4,2,2,1,5,3,4,2,2,3,4,2,2,2,5,2,5,6,2,2,2,5,2,2,2,3,2,2,1,1,1,2,2,2,2,1,2,5,4,4,4,4,5,5,4,4,5,6,6,5,7,6,6,4,3,2,3,2,2,2,2,3,3,3,3,3,2,4,2,5,8,7,6,6,6,6,3,5,4,4,2,2,4,4,5,4,2,2,3,5,5,4,2,2,4,4,3,3,3,5,5,5,4,4,4,4,2,2,2,2,2,2,3,4,2,3,3,4,5,4,4,4,5,4,5,4,3,4,4,4,3,3,4
"Poland",1995,2,7,1,3,2,1,11,5,2,NA,36.7,36.7,36.7,52.416702270508,87,2,9,1,1,1,NA,4,4,4,1,2,1,3,1,1,NA,2,3,2,1,1,1,1,NA,1,NA,NA,NA,NA,NA,NA,NA,NA,NA,NA,2,3,4,5,4,4,1,2,2,2,4,4,4,3,4,4,3,3,4,3,3,2,3,4,4,4,4,4,4,3,4,3,2,4,4,4,4,3,3,4,4,2,2,2,1,3,2,5,2,1,5,6,7,5,2,4,2,3,2,2,5,2,5,5,1,2,2,3,1,2,1,1,2,2,2,1,2,2,1,3,3,2,3,5,5,5,5,5,5,5,5,5,5,4,4,4,4,4,4,5,4,3,5,4,4,5,3,3,4,4,1,1,2,3,2,5,5,7,6,6,6,6,1,5,4,4,2,4,1,3,3,5,2,1,3,4,4,3,3,2,1,5,5,5,3,4,2,5,5,1,5,3,1,1,1,1,2,5,5,2,3,2,5,2,5,3,1,5,5,5,4,3,3,4,5,1,1,1,4
"SMU",1995,2,4,1,4,2,1,1,0,2,NA,36.7,36.7,36.7,1.2931060791016,79,26,5,1,1,3,3,4,4,4,4,3,3,5,5,1,NA,2,8,3,3,6,3,2,2,1,NA,NA,NA,NA,NA,NA,NA,NA,NA,NA,2,2,3,5,5,1,2,1,2,4,2,4,4,5,4,4,2,1,3,3,5,3,4,5,5,3,3,4,4,3,4,4,3,3,3,5,3,5,4,4,3,3,3,3,3,3,3,4,5,5,5,4,4,4,5,4,4,4,4,3,3,4,4,5,4,4,4,4,4,4,4,5,3,4,4,4,4,3,3,3,4,4,4,5,4,4,4,4,4,4,4,5,7,5,5,4,4,4,5,3,4,3,4,3,3,4,3,4,3,3,2,3,2,3,3,2,2,4,3,3,3,3,4,3,4,4,4,4,4,4,4,4,4,3,4,4,4,4,3,2,4,4,4,3,4,3,3,3,3,4,3,3,3,3,3,3,3,3,4,3,2,4,3,4,3,3,3,3,4,3,3,3,3,4,4,3,3,2,4
"Tsinghua",1995,2,5,1,4,2,1,6,0,2,0,36.7,36.4,37,30.580093383789,66,13,7,3,2,1,0,4,4,5,0,8,3,5,4,1,1,2,4,1,1,1,3,1,3,2,"õÌÈ­µÀÐ­»á",NA,NA,NA,NA,4,NA,NA,NA,NA,3,4,4,5,4,3,1,5,4,3,4,4,4,3,4,4,2,2,2,2,3,2,2,3,4,2,2,4,3,4,4,4,5,4,3,4,4,4,4,4,2,4,2,2,2,2,4,2,1,4,2,2,2,2,2,2,2,1,2,2,3,5,2,5,1,3,2,5,3,2,7,7,2,4,2,1,6,2,7,2,5,1,3,5,5,5,5,5,4,4,4,5,3,1,1,4,3,3,3,2,2,4,1,2,4,4,2,2,3,2,2,2,1,2,2,5,5,3,5,5,5,5,1,1,5,4,2,2,2,4,3,5,4,1,3,5,4,2,4,4,5,4,2,5,5,4,4,4,4,4,4,4,2,2,2,2,5,4,2,2,1,3,4,5,4,5,5,4,5,5,4,5,5,4,5,5,2,4,2
"UCSB",1995,2,6,2,3,2,1,6,0,2,NA,36.72222222,36.66666667,36.77777778,34.0184021,56,6.666666667,5,1,2,1,NA,4,4,5,NA,8,4,6,5,1,NA,2,7,3,1,8,1,1,NA,1,NA,NA,NA,NA,NA,NA,NA,NA,NA,NA,2,2,4,2,2,2,2,3,2,4,4,4,4,2,3,4,2,2,2,2,1,3,2,3,4,2,3,2,3,3,4,3,2,2,4,4,4,5,4,4,5,1,1,1,3,2,5,2,2,2,2,4,2,2,5,4,2,2,2,2,2,3,2,2,5,5,2,6,5,4,4,5,4,4,3,3,3,2,3,5,5,3,4,5,5,5,5,5,4,2,2,2,4,4,5,3,5,4,6,2,2,2,2,2,2,2,2,3,2,2,3,2,2,3,2,5,5,6,5,3,1,4,1,5,4,4,2,1,5,2,2,4,2,2,4,4,2,4,4,2,1,1,4,4,4,4,4,3,3,4,3,4,2,2,3,2,5,3,4,2,2,4,4,2,3,1,4,4,4,2,2,2,2,4,3,2,2,2,4
"UCSB",1995,2,7,1,2,2,2,8,0,2,NA,36.72222222,36.72222222,36.72222222,37.552200317383,64,6.111111111,5,1,2,1,NA,4,2,5,NA,3,1,8,4,1,NA,2,8,1,NA,NA,1,1,NA,2,"Sorority","N/A","N/A","N/A","N/A",7,0,0,0,0,2,2,2,3,2,4,2,3,3,2,4,4,4,4,3,4,3,3,3,3,3,4,3,4,4,2,3,4,4,4,4,1,2,4,4,5,4,4,4,4,4,4,4,4,2,4,4,1,5,5,5,5,1,2,3,5,1,2,4,2,1,5,5,4,1,2,2,4,3,3,4,2,2,4,3,3,3,2,3,6,5,2,3,5,4,5,5,5,3,3,4,3,5,5,5,5,5,4,4,2,2,1,2,2,4,3,2,3,2,2,2,2,2,4,2,5,5,3,4,2,3,1,2,2,2,4,4,4,3,3,4,2,2,1,1,2,2,1,5,1,1,1,4,3,4,3,3,5,3,2,4,3,1,2,1,2,5,4,4,2,2,3,2,2,2,2,4,2,2,2,2,3,2,4,2,4,2,2,4
"VCU",1995,2,7,1,5,2,1,30,0,2,NA,36.72222222,36.88888889,36.55555556,34.4335022,94,13.33333333,5,1,1,1,NA,4,4,4,1,8,5,6,4,1,NA,1,NA,3,2,4,1,2,3,1,NA,NA,NA,NA,NA,NA,NA,NA,NA,NA,4,5,5,5,5,5,5,4,4,3,5,5,5,3,4,2,2,1,2,2,2,2,2,4,4,2,2,4,5,3,4,3,2,4,4,3,4,4,3,4,3,2,2,2,2,2,3,1,1,1,1,1,1,1,1,1,1,1,1,1,1,1,1,1,1,1,1,1,1,1,1,1,1,1,1,1,1,1,1,1,1,1,1,5,4,4,5,5,4,3,4,3,3,6,6,6,4,4,4,1,3,1,3,3,1,2,3,3,1,1,1,1,2,3,4,3,2,2,1,2,3,3,5,3,1,5,2,5,3,3,4,4,2,1,1,2,2,1,5,3,2,3,2,2,4,5,3,5,5,5,5,5,3,3,2,2,5,3,4,2,3,2,2,2,3,2,2,3,5,4,4,4,2,4,3,3,4,2,1
"Serbia",1995,1,6,1,5,2,1,0,0,2,NA,36.725,36.75,36.7,44.818603515625,56,6,6,1,2,1,NA,4,4,4,2,4,2,4,4,1,NA,2,8,1,NA,NA,1,1,NA,1,NA,NA,NA,NA,NA,NA,NA,NA,NA,NA,5,5,4,4,4,5,3,4,4,4,4,4,4,2,3,3,2,1,1,2,2,1,1,3,4,1,3,1,1,1,1,1,1,1,1,2,2,2,2,2,2,1,1,1,1,1,1,1,1,2,1,8,5,5,1,NA,1,NA,1,5,1,1,3,1,2,1,1,1,NA,1,1,1,1,NA,1,NA,NA,1,1,4,4,1,NA,4,4,4,4,4,4,4,4,4,4,4,4,3,3,3,3,3,1,1,2,2,3,4,2,2,2,2,1,1,1,1,1,4,5,5,2,2,6,6,4,2,1,5,5,4,5,3,3,2,1,5,2,3,4,5,4,5,5,5,4,3,4,4,1,1,4,1,2,1,2,4,1,2,4,5,4,3,3,4,4,5,3,5,2,4,4,5,5,2,4,5,4,2,5,3,4
"UCSB",1995,2,1,2,4,2,1,3,0,2,NA,36.72777778,37.01111111,36.44444444,34.50210571,71,7.777777778,5,1,2,1,NA,4,4,2,4,4,2,8,6,2,3,2,8,1,NA,NA,8,1,NA,2,"Sorority",NA,NA,NA,NA,7,NA,NA,NA,NA,4,4,5,2,1,3,3,4,2,3,4,4,4,2,2,4,2,3,2,2,4,2,2,2,5,3,3,4,4,2,4,4,3,4,3,4,4,4,4,4,3,2,2,3,4,2,4,2,2,2,1,1,2,3,2,2,2,2,1,2,1,2,2,1,2,2,3,2,2,2,5,3,2,2,3,3,4,2,4,3,4,2,3,4,5,4,5,5,5,3,3,4,7,5,5,4,5,5,5,3,3,2,2,3,2,4,2,5,2,1,3,3,2,4,2,5,6,3,3,3,4,5,2,4,3,4,3,2,2,4,2,4,2,2,2,2,4,2,2,2,4,3,4,1,5,4,4,4,4,4,3,3,2,2,2,2,3,3,2,3,2,3,3,4,2,2,4,3,4,4,3,4,3,4,2,3,4,3,2
"VCU",1995,2,7,2,5,2,1,2,0,2,NA,36.75,36.77777778,36.72222222,37.552200317383,94,13.33333333,5,1,2,1,NA,4,4,5,NA,8,4,8,7,1,NA,2,5,1,NA,NA,1,1,NA,2,"Society of Human Resources Management",NA,NA,NA,NA,1,NA,NA,NA,NA,5,5,5,5,5,5,5,5,5,5,5,5,5,2,2,2,1,1,1,2,2,2,1,2,4,1,1,1,3,1,3,1,1,1,2,1,4,3,2,2,2,1,1,2,1,1,3,1,1,1,1,1,1,1,1,1,1,1,1,1,1,1,1,1,1,1,2,4,1,1,1,1,1,1,2,2,2,1,1,4,4,1,1,5,5,5,5,5,5,4,4,5,3,1,1,1,2,2,2,1,1,1,1,1,1,1,1,2,1,1,2,1,1,2,1,4,3,4,2,2,3,2,4,1,4,5,3,3,2,2,2,4,1,2,3,2,2,1,4,3,1,1,4,4,4,4,4,4,4,3,4,4,1,1,1,1,5,4,4,1,1,3,3,3,2,1,1,1,4,1,2,1,4,1,1,1,1,3,2
"Serbia",1995,2,7,2,3,2,1,0,0,2,NA,36.75,36.5,37,44.818603515625,58,4,6,1,2,1,NA,4,4,5,NA,8,4,6,6,1,NA,2,8,1,NA,NA,1,1,NA,1,NA,NA,NA,NA,NA,NA,NA,NA,NA,NA,4,4,4,4,4,4,4,4,4,3,4,4,4,3,3,4,2,3,2,2,3,2,3,3,5,2,4,2,2,2,3,2,1,2,2,4,4,4,2,4,2,2,3,4,2,3,2,3,3,2,4,3,7,2,3,3,2,4,2,2,2,3,2,5,2,8,4,8,NA,3,4,5,7,7,4,4,6,5,8,6,6,5,4,5,5,4,5,5,5,5,5,5,3,4,5,3,4,3,4,5,4,2,4,2,3,4,2,5,2,2,2,3,2,2,3,4,3,6,3,3,3,3,2,3,2,4,4,3,3,3,3,2,3,2,3,3,2,2,3,5,4,3,4,3,3,3,2,2,1,1,3,4,3,3,2,2,2,4,4,2,2,4,3,4,4,2,2,4,4,3,2,3,2,4,2,2,2,2,2
"Tsinghua",1995,1,7,2,4,2,1,3,0,1,20,36.75,36.7,36.8,30.580093383789,72,14,7,3,2,1,0,4,4,5,0,8,4,8,8,1,1,2,8,1,8,4,5,2,1,1,"Ñ§Éú»á",NA,NA,NA,NA,7,NA,NA,NA,NA,3,2,3,4,2,4,3,4,2,5,4,3,5,2,4,3,2,2,2,2,1,2,2,2,4,2,2,3,3,1,2,1,2,5,4,3,3,3,3,3,1,4,4,3,1,1,3,7,2,2,3,6,1,2,4,6,2,6,2,2,4,2,4,7,4,4,3,2,3,2,3,1,4,4,5,2,5,2,1,1,2,4,4,5,5,5,5,5,5,5,5,5,4,3,5,6,6,6,6,2,2,3,2,2,3,3,4,3,2,2,2,2,1,2,2,2,2,1,2,3,2,2,3,5,4,4,4,1,1,4,3,2,3,3,2,4,4,3,2,3,3,3,4,3,4,4,4,4,4,3,4,4,2,2,2,4,4,4,4,3,2,4,4,4,4,3,3,4,3,3,4,4,3,3,3,3,4,2,1
"Oslo",1995,2,6,1,4,2,2,0,0,2,NA,36.75,36.77777778,36.72222222,59.912704467773,87,1,4,1,2,1,NA,2,2,5,NA,3,3,5,5,1,NA,2,1,3,1,4,3,1,NA,1,NA,NA,NA,NA,NA,NA,NA,NA,NA,NA,3,2,4,4,4,4,1,3,2,2,2,3,3,4,3,4,3,3,3,3,4,3,3,3,4,3,4,2,2,2,3,4,2,4,3,4,4,4,4,4,4,2,3,3,4,4,4,6,6,4,5,6,5,6,5,5,6,2,2,5,4,6,5,6,5,4,2,5,3,5,5,5,5,5,3,3,3,3,5,5,3,3,4,5,4,4,4,4,4,3,5,5,6,6,5,6,6,5,5,4,2,2,2,4,2,4,2,3,4,4,3,3,2,3,2,5,6,6,3,4,4,4,2,3,3,4,3,3,3,3,3,4,3,3,3,3,5,3,4,4,3,3,3,3,3,4,4,3,3,3,4,5,3,2,4,2,2,2,2,3,2,3,2,4,3,4,2,4,4,4,4,4,4,5,4,4,4,2,4
"Tsinghua",1995,1,7,2,2,2,1,NA,NA,2,0,36.75,36.5,37,30.666702270508,76,13,7,3,2,1,0,4,1,5,0,8,3,2,1,1,1,2,3,1,1,4,3,2,1,2,NA,NA,NA,NA,NA,NA,NA,NA,NA,NA,1,2,1,4,2,3,2,2,2,1,1,4,3,3,4,3,4,4,1,5,2,4,5,4,4,4,2,1,5,1,2,3,4,4,2,5,2,1,3,4,2,2,1,1,1,2,3,5,4,3,6,2,4,4,5,2,5,3,6,7,3,7,3,4,2,6,2,2,2,3,2,3,2,2,2,2,5,2,4,3,2,2,6,4,3,3,4,4,3,5,4,3,6,3,4,5,4,2,4,5,2,2,4,2,5,4,5,4,4,2,3,2,2,3,1,2,2,4,2,2,1,3,3,4,4,5,2,4,3,5,2,4,1,2,1,4,4,2,4,5,3,4,3,5,5,3,2,4,3,3,5,4,3,3,2,1,1,1,2,4,3,4,1,4,4,2,2,5,3,2,1,4,3,5,2,3,4,3,1
"Oslo",1995,2,6,1,4,2,2,0,0,2,NA,36.75,36.77777778,36.72222222,NA,90,0,4,1,2,1,NA,2,2,5,NA,3,3,5,5,1,NA,2,4,3,1,5,2,1,NA,1,NA,NA,NA,NA,NA,NA,NA,NA,NA,NA,3,3,3,3,3,3,3,3,3,3,3,3,3,3,3,3,3,3,3,3,3,3,3,3,3,3,3,3,3,3,3,3,3,3,3,3,3,3,3,3,3,3,3,3,3,3,3,4,4,4,4,4,4,4,4,4,4,4,4,4,4,4,4,4,4,4,4,4,4,4,4,4,4,4,4,4,4,4,4,4,4,4,4,4,4,4,4,4,4,4,4,4,5,4,4,4,4,4,4,3,3,3,3,3,3,3,3,3,3,3,3,3,3,3,3,4,6,5,4,4,4,4,3,3,3,3,3,3,3,3,3,3,3,3,3,3,3,3,3,3,3,3,3,3,3,4,4,3,4,3,3,3,3,3,3,3,3,3,3,4,4,4,4,4,2,4,2,4,3,4,4,4,4,4,4,4,3,3,3
"METU",1995,2,7,2,4,2,1,1,0,2,NA,36.75,36.8,36.7,39.911697387695,71,8,3,2,2,1,NA,4,4,5,NA,3,2,4,3,1,NA,2,8,1,NA,NA,2,1,NA,1,NA,NA,NA,NA,NA,NA,NA,NA,NA,NA,4,2,3,3,3,4,2,2,2,2,4,2,3,3,3,3,3,2,2,3,3,4,3,3,4,3,2,4,4,3,3,2,3,4,3,3,5,2,3,4,4,1,1,1,1,1,4,6,5,3,7,7,7,4,7,6,2,4,5,6,2,2,6,4,2,2,2,4,2,2,4,7,6,4,2,2,1,1,6,2,2,1,2,4,5,4,5,5,5,5,5,5,4,5,5,5,6,5,5,3,4,4,4,4,3,4,2,3,3,4,2,2,1,3,2,2,2,5,2,2,2,2,2,2,2,5,2,5,1,2,5,4,4,1,2,4,5,2,4,3,3,4,4,3,5,5,5,4,4,4,4,3,1,1,1,3,5,4,3,4,2,4,3,4,3,5,2,4,2,5,5,5,2,5,5,4,4,2,4
"Tsinghua",1995,2,7,1,2,2,1,2,0,2,0,36.75,36.7,36.8,39.928894042969,21,11,7,3,2,1,0,4,2,5,0,3,1,5,4,1,1,2,6,1,1,1,3,2,1,2,NA,NA,NA,NA,NA,NA,NA,NA,NA,NA,4,2,2,4,4,2,1,3,2,2,4,2,4,4,2,3,3,4,2,2,3,2,3,2,4,3,3,4,4,2,4,4,4,2,4,4,4,4,4,4,2,4,2,2,4,4,4,5,5,2,5,6,6,6,2,5,5,4,5,2,5,2,5,6,2,2,2,5,1,5,1,2,2,2,3,2,5,3,2,5,3,2,3,4,4,4,4,4,4,4,4,4,5,2,4,5,6,6,6,3,3,4,3,4,4,4,3,4,2,4,3,4,2,4,2,3,2,2,2,2,3,4,2,4,4,4,2,4,3,2,2,4,2,2,4,4,2,2,2,2,3,3,4,4,4,4,4,3,4,2,4,4,2,2,2,2,4,4,4,4,4,4,3,4,4,3,3,4,4,4,4,4,4,4,4,4,4,2,4
"Poland",1995,2,7,1,3,2,1,6,2,2,NA,36.75,36.7,36.8,52.233306884766,59,3,9,1,2,1,NA,4,4,5,1,6,5,6,6,2,2,2,8,2,1,1,1,2,3,1,NA,NA,NA,NA,NA,NA,NA,NA,NA,NA,3,2,2,4,5,4,2,3,4,2,4,3,4,3,4,5,3,4,3,3,3,3,3,4,4,3,3,4,4,4,4,4,3,4,2,4,4,4,4,3,4,2,3,4,3,2,4,5,6,5,5,7,6,5,5,7,4,3,5,4,5,5,5,5,4,4,3,4,2,3,1,1,3,1,2,2,3,2,1,4,4,3,3,4,4,4,4,4,3,2,4,4,2,2,2,2,2,2,2,4,4,2,4,4,3,4,2,4,3,2,2,1,2,2,4,5,8,7,8,8,8,8,2,4,3,4,4,4,2,3,2,5,3,3,4,4,4,3,4,3,2,4,3,4,4,4,4,4,4,4,4,3,2,2,2,2,4,4,2,2,2,3,3,4,4,3,2,2,4,4,3,3,3,3,4,2,2,2,4
"Serbia",1995,2,7,2,3,2,1,0,0,2,NA,36.75,36.7,36.8,44.746704101562,65,2,6,1,2,1,NA,3,1,5,NA,6,5,4,4,1,NA,2,5,1,NA,NA,1,1,NA,1,NA,NA,NA,NA,NA,NA,NA,NA,NA,NA,3,3,2,4,4,4,2,4,3,3,4,4,5,3,4,4,2,2,1,4,4,2,3,5,4,3,3,5,4,3,4,3,2,4,4,5,4,4,4,2,3,3,4,5,2,4,3,3,8,5,8,8,4,4,5,4,5,4,4,4,1,8,4,5,3,8,5,7,5,8,5,8,6,6,6,5,6,6,8,7,7,5,4,4,4,3,4,4,5,4,5,5,7,7,6,6,7,7,7,4,5,4,3,4,4,4,5,4,3,4,1,2,1,4,3,3,3,3,1,4,4,5,2,4,2,4,2,5,2,3,3,5,4,4,2,2,4,4,4,3,2,3,3,4,3,3,4,2,2,3,4,3,3,4,3,2,3,4,4,1,2,4,3,2,4,2,1,3,4,2,2,4,3,5,2,3,4,2,4
"Tsinghua",1995,2,7,1,2,2,1,4,0,2,0,36.75,36.6,36.9,30.580093383789,66,13,7,3,2,1,0,4,4,5,0,3,3,6,4,1,1,2,8,1,1,8,1,2,1,2,"°à¼¶",NA,NA,NA,NA,7,NA,NA,NA,NA,1,4,5,4,2,2,1,1,2,4,3,1,2,2,3,2,3,4,4,2,2,4,4,2,4,4,2,5,5,2,5,5,5,5,2,4,3,2,5,4,3,1,4,4,2,4,5,6,6,6,6,7,6,6,6,6,6,2,2,2,2,2,4,5,2,6,2,2,2,2,2,5,2,2,2,2,3,2,6,1,2,4,4,4,4,4,4,4,3,3,4,4,6,2,2,6,6,6,6,2,2,2,3,4,2,2,2,2,4,2,2,3,2,2,2,5,5,6,5,6,6,4,2,2,4,4,2,4,2,2,4,4,4,1,1,4,4,2,5,3,3,2,4,4,4,4,2,4,4,2,4,4,2,3,2,2,4,4,2,2,2,4,3,4,4,2,2,4,4,2,4,2,4,2,2,2,3,1,2
"UCSB",1995,2,7,2,4,2,1,0,0,2,NA,36.77777778,36.77777778,36.77777778,34.4335022,92,13.88888889,5,1,2,1,NA,4,4,3,4,8,2,6,6,1,NA,2,1,3,1,1,1,1,NA,1,NA,NA,NA,NA,NA,NA,NA,NA,NA,NA,2,1,2,2,1,3,1,5,1,1,5,5,3,4,5,5,4,2,1,2,4,3,2,5,5,1,5,5,5,4,5,5,5,5,5,5,5,5,5,5,5,1,1,5,5,1,5,7,7,6,7,2,7,2,7,7,3,7,7,4,7,7,7,7,2,2,1,1,1,6,3,2,3,1,3,1,1,1,1,1,1,1,4,5,5,5,5,5,3,1,5,5,7,7,7,7,7,7,7,3,1,1,1,1,1,5,2,1,1,1,2,1,1,1,1,4,4,7,3,4,5,5,1,5,3,5,1,1,3,4,5,5,2,1,5,5,5,5,3,4,2,5,5,5,5,5,1,5,4,4,4,1,1,3,2,1,5,3,4,1,1,5,3,5,4,5,5,4,5,5,5,5,1,5,5,5,5,1,5
"Zurich",1995,2,7,2,3,2,1,2,0,1,2,36.8,36.8,36.8,47.240707397461,72,4,1,1,2,1,NA,4,4,3,1,4,2,7,4,1,NA,2,8,3,7,8,1,1,NA,1,NA,NA,NA,NA,NA,NA,NA,NA,NA,NA,2,3,2,3,2,5,4,3,3,4,3,3,2,3,3,4,2,3,2,2,3,3,2,3,4,1,3,2,4,4,2,2,2,2,2,3,4,4,2,4,4,1,1,2,2,2,2,5,6,5,6,6,6,6,6,6,5,5,4,5,2,6,6,6,2,4,3,6,4,3,2,2,3,5,3,2,3,4,4,6,6,3,3,5,5,5,5,4,5,4,5,5,7,6,6,7,7,6,6,4,4,2,3,4,4,4,4,2,2,4,2,2,2,3,2,5,8,4,2,2,4,8,3,3,2,4,2,3,4,4,2,4,2,1,2,4,1,3,2,3,2,4,4,4,3,4,4,4,3,4,4,4,2,2,2,3,3,3,2,2,3,4,2,4,3,2,2,3,4,4,4,4,3,3,4,4,3,2,4
"METU",1995,2,7,1,5,2,1,3,0,2,NA,36.8,36.6,37,39.911697387695,56,4,3,2,2,1,NA,4,4,4,1,4,3,7,5,1,NA,2,8,1,NA,NA,1,1,NA,2,"??renci toplulu?u",NA,NA,NA,NA,5,NA,NA,NA,NA,2,4,4,4,1,3,4,2,2,4,4,1,4,2,3,3,2,3,2,3,4,2,2,4,4,2,2,4,2,3,2,3,3,4,4,4,4,4,4,4,4,2,2,2,3,2,4,6,3,5,5,6,3,2,5,3,2,2,2,1,4,3,5,1,3,3,5,5,6,6,2,5,5,5,2,2,7,2,4,5,5,2,2,4,4,4,4,4,4,3,4,4,5,6,6,6,5,4,4,3,4,2,4,3,3,3,2,2,2,4,2,4,3,4,2,5,6,6,3,4,3,1,4,3,3,4,2,2,2,4,4,4,4,2,3,3,4,2,4,4,3,4,3,4,4,4,2,4,3,2,4,4,2,2,2,2,2,3,3,3,1,2,4,4,4,4,2,4,3,4,4,4,2,4,4,3,3,1,5
"SMU",1995,2,2,1,3,2,1,0,0,2,NA,36.8,36.7,36.9,1.2931060791016,70,26,5,1,2,1,NA,4,4,5,NA,3,1,6,5,1,NA,2,8,1,NA,NA,1,1,NA,2,"Dance CCA",NA,NA,NA,NA,7,NA,NA,NA,NA,4,3,3,4,5,4,3,4,2,4,4,4,4,2,5,3,2,2,2,4,3,2,2,5,5,1,2,3,4,2,5,4,4,4,2,2,2,2,2,2,2,2,1,3,1,1,2,5,5,4,3,5,4,2,2,2,1,2,5,1,3,2,2,2,2,2,1,2,1,2,3,1,2,2,1,1,1,1,2,1,1,1,2,5,5,5,5,5,5,4,5,5,3,7,5,5,5,4,5,2,4,2,3,2,3,3,3,2,2,2,3,3,2,4,2,3,4,5,3,3,4,4,1,2,4,4,2,5,2,3,5,4,2,1,4,4,4,3,2,3,4,4,4,5,3,5,5,5,5,4,5,5,1,1,3,4,3,4,4,3,3,4,4,4,4,4,2,4,4,5,5,4,1,4,4,4,3,2,5
"Tsinghua",1995,1,5,2,2,2,1,2,0,2,0,36.8,36.8,36.8,30.580093383789,74,16,7,3,2,1,0,4,1,5,0,1,0,3,1,1,1,2,8,3,1,8,8,2,1,2,NA,NA,NA,NA,NA,0,0,0,0,0,4,5,3,4,5,4,1,3,2,3,3,4,1,3,3,3,2,3,3,4,4,4,4,2,3,2,3,4,5,2,5,2,2,4,3,5,4,4,4,4,3,2,2,2,2,3,4,3,3,4,5,5,3,4,5,4,2,3,3,4,3,3,3,5,3,4,4,4,3,3,3,2,4,2,3,3,5,3,3,3,4,3,4,4,4,4,3,2,2,4,2,3,6,4,5,5,4,4,4,3,3,3,4,4,4,3,4,3,3,2,1,4,2,3,4,3,2,7,3,3,1,1,4,5,5,5,1,2,2,4,3,4,3,2,4,4,3,3,3,4,2,2,2,3,3,2,3,4,3,2,3,3,2,3,2,2,2,2,4,3,1,4,4,4,3,2,3,4,4,2,3,3,3,2,4,3,4,4,2
"VCU",1995,2,7,1,3,2,1,0,0,2,NA,36.83166667,36.83333333,36.83,37.552200317383,87,13.33333333,5,1,2,1,NA,4,4,5,NA,2,2,5,5,2,1,2,5,1,NA,NA,1,2,1,2,"Alpha Gamma Delta",NA,NA,NA,NA,6,NA,NA,NA,NA,3,4,5,4,4,3,5,1,4,4,4,5,4,3,2,4,3,2,2,3,4,3,3,2,5,2,3,2,4,3,4,3,2,2,3,3,4,3,4,3,4,2,2,2,2,3,4,2,2,3,2,2,2,2,3,2,2,3,2,2,2,2,5,3,2,6,3,5,5,5,5,3,3,5,3,4,4,5,3,6,4,6,3,4,4,4,4,5,5,4,4,4,4,4,2,2,5,4,4,2,4,1,4,3,3,4,4,4,2,3,3,2,2,3,4,1,3,4,3,2,3,1,2,4,4,4,2,4,2,2,2,4,2,2,4,2,2,4,3,2,2,2,5,5,4,1,3,2,3,3,2,2,2,2,3,1,4,3,2,2,2,3,3,3,3,2,2,3,4,1,3,2,4,4,2,2,3,2,1
"UCSB",1995,1,1,2,3,2,1,10,0,1,2,36.83333333,36.55555556,37.11111111,34.4329071,86,12.22222222,5,1,2,1,NA,4,4,5,NA,5,1,8,8,1,NA,2,3,3,1,6,8,1,NA,1,NA,NA,NA,NA,NA,NA,NA,NA,NA,NA,3,4,1,4,1,2,2,1,1,5,3,3,5,3,3,4,3,3,2,3,4,2,3,5,4,3,4,1,4,1,4,1,1,2,1,2,1,1,1,1,1,1,2,1,1,1,1,2,5,2,3,3,4,6,3,5,2,2,2,3,2,2,2,6,2,4,3,2,3,2,2,3,2,2,3,3,4,2,2,3,3,2,2,1,3,4,3,3,2,2,2,4,6,7,5,4,6,4,4,2,2,2,2,2,3,2,2,2,2,2,2,2,3,3,2,4,4,3,1,1,1,1,1,2,3,5,4,2,3,2,4,3,1,3,1,2,4,3,1,2,1,2,4,2,4,2,2,4,2,3,2,2,2,4,4,2,2,4,2,2,2,3,3,4,3,2,4,2,4,2,2,3,3,4,2,3,4,3,2
"UCSB",1995,2,7,1,2,1,1,1.5,1.5,2,NA,36.83333333,36.11111111,37.55555556,34.4329071,86,12.22222222,5,1,2,1,NA,4,1,4,1,8,2,8,7,1,NA,2,8,3,1,8,6,1,NA,2,"Gaucho Automative Society","Cars and Chill",NA,NA,NA,4,2,NA,NA,NA,3,4,3,4,3,3,2,3,2,3,4,5,5,2,2,3,3,2,2,2,1,2,3,2,4,2,2,4,4,2,3,2,1,2,3,4,4,3,3,2,3,1,2,2,3,2,4,4,2,3,3,2,4,4,3,4,2,3,2,2,2,2,4,4,2,4,3,5,2,2,3,3,3,2,3,3,5,2,4,3,5,2,4,4,4,4,4,5,4,2,4,3,5,6,6,5,4,5,5,2,2,1,2,1,1,3,2,3,2,1,3,2,1,2,2,5,6,5,3,3,2,3,2,2,4,4,3,4,2,2,4,4,2,2,2,3,3,2,2,2,3,3,4,3,5,5,5,4,4,4,3,2,1,1,2,1,1,4,4,3,2,2,3,2,2,3,2,4,4,3,3,4,3,4,3,4,3,4,4
"SMU",1995,2,1,2,2,2,1,0,0,2,NA,36.85,36.7,37,1.2931060791016,70,27,5,1,2,1,NA,4,4,5,NA,2,2,8,5,1,NA,2,8,1,NA,NA,3,1,NA,1,NA,NA,NA,NA,NA,NA,NA,NA,NA,NA,4,5,3,5,5,5,3,4,4,4,4,4,5,2,3,3,2,2,2,2,2,3,3,2,4,2,2,1,1,1,1,2,1,1,1,1,2,1,2,1,1,1,1,1,2,1,1,1,4,4,4,4,4,4,4,4,4,4,4,4,4,4,4,4,4,4,4,4,4,4,4,4,4,4,4,4,4,4,4,4,4,4,4,5,5,5,5,5,5,5,5,5,4,5,4,5,5,5,5,2,1,1,2,1,1,1,1,2,1,1,2,1,2,2,3,5,8,6,4,7,8,8,2,5,5,2,2,2,2,2,2,5,5,2,4,5,2,4,2,2,2,2,3,4,3,4,3,3,4,4,4,4,2,1,1,1,2,5,5,2,1,3,3,3,4,2,3,4,2,2,3,4,1,4,4,4,2,4,2
"Tsinghua",1995,2,7,2,2,2,1,0,0,2,0,36.85,36.9,36.8,30.580093383789,90,13,7,3,2,1,0,4,4,5,0,5,3,6,1,1,1,2,4,3,2,2,1,2,1,2,NA,NA,NA,NA,NA,NA,NA,NA,NA,NA,2,2,2,3,4,3,1,1,2,2,2,4,2,4,3,5,4,4,4,4,2,4,3,2,4,2,3,2,2,1,3,3,3,1,3,4,3,3,3,2,2,1,1,2,2,3,3,5,2,5,5,4,5,5,5,5,5,5,4,4,4,5,2,6,1,6,3,4,5,2,6,6,5,5,3,3,6,4,7,3,6,3,6,3,3,2,4,4,5,5,3,4,3,1,5,5,5,5,4,2,3,1,2,4,4,5,2,4,4,1,3,4,2,4,2,4,5,4,4,3,3,4,1,5,4,4,1,3,1,3,4,5,2,2,2,4,3,4,2,4,2,2,4,4,2,1,3,4,2,3,4,2,1,4,1,3,4,4,1,3,2,4,4,3,4,1,3,5,4,1,1,1,3,1,4,1,3,2,2
"SMU",1995,2,7,2,3,2,1,1,0,2,NA,36.85,36.7,37,1.2931060791016,70,26,5,1,2,1,NA,4,4,5,NA,4,2,7,4,1,NA,2,8,1,NA,NA,1,1,NA,1,NA,NA,NA,NA,NA,NA,NA,NA,NA,NA,2,2,3,4,2,2,2,2,2,3,3,2,4,3,3,4,2,2,2,4,4,3,4,3,4,3,4,2,4,2,2,3,2,2,2,4,4,4,4,4,4,2,2,2,2,2,4,5,3,5,5,4,2,3,5,2,4,4,3,5,3,3,3,5,3,6,3,3,3,3,3,4,2,3,3,2,3,2,6,2,3,4,3,4,4,4,4,4,4,4,4,4,3,6,6,6,4,4,4,4,4,2,4,4,2,4,4,4,2,2,3,4,3,2,4,3,3,3,2,2,3,1,3,2,4,3,2,2,2,4,4,4,4,2,3,4,2,4,2,4,2,2,4,4,4,4,2,4,3,3,2,2,2,2,2,2,2,4,2,2,2,2,3,4,4,2,3,3,4,2,2,2,2,2,4,2,4,2,4
"Tsinghua",1995,2,7,1,3,2,1,3,0,2,0,36.85,36.8,36.9,30.580093383789,78,17,7,3,2,1,0,4,2,5,0,6,3,5,4,1,1,2,8,3,1,2,1,2,1,2,NA,NA,NA,NA,NA,NA,NA,NA,NA,NA,3,2,5,2,3,2,1,5,4,3,3,3,4,4,4,4,4,3,2,2,3,4,2,4,3,4,4,2,4,2,4,4,4,2,4,4,4,4,4,4,4,3,2,2,2,4,4,4,6,6,3,5,4,6,5,4,5,4,4,4,5,6,6,6,4,4,5,3,2,3,3,3,2,2,2,2,4,2,3,2,2,2,4,4,4,4,4,4,4,4,4,5,3,4,4,5,3,5,5,4,4,2,2,4,4,4,4,4,2,5,2,2,2,2,2,1,2,4,4,2,5,3,4,4,4,5,1,2,1,3,1,5,4,2,5,3,3,2,2,4,3,3,2,4,4,4,4,4,3,3,4,3,2,3,2,2,3,2,4,2,3,4,2,4,4,4,3,4,2,4,3,2,4,2,4,3,4,4,3
"Oslo",1995,2,7,1,1,2,1,2,1,2,NA,36.85,36.8,36.9,59.053298950195,89,0,4,1,2,1,NA,4,4,4,1,2,2,3,3,1,NA,2,4,1,NA,NA,1,1,NA,1,NA,NA,NA,NA,NA,NA,NA,NA,NA,NA,4,2,2,4,5,5,5,5,4,3,3,5,4,5,3,5,4,4,3,3,3,3,3,2,5,3,4,4,4,4,4,4,4,4,4,4,5,5,5,5,4,1,1,2,4,3,4,6,6,6,6,6,7,5,6,6,5,7,2,5,1,2,5,6,2,3,3,6,6,6,4,6,4,3,2,2,3,2,5,4,4,2,4,5,5,5,5,4,4,4,5,4,3,2,2,3,2,2,2,4,4,3,4,2,4,4,3,4,4,4,1,1,2,5,2,4,5,5,1,3,1,3,2,4,5,2,2,2,4,3,3,5,5,1,5,5,4,4,2,2,2,1,4,5,2,4,4,4,3,2,4,3,2,2,1,1,2,4,3,1,1,5,4,2,4,2,4,3,4,3,3,4,4,4,4,4,2,1,3
"SMU",1995,2,1,2,3,2,1,4,0,2,NA,36.85,36.7,37,1.2931060791016,70,26,5,1,2,1,NA,4,1,5,NA,1,NA,8,5,2,1,2,7,1,NA,NA,2,1,NA,2,"Bondue EXCO","Consumer Behaviour Group","CAT Group","MPW Group",NA,7,3,1,3,NA,3,2,3,4,4,5,2,4,3,3,3,2,3,4,4,5,3,4,3,3,4,3,3,4,4,3,3,5,4,4,5,5,5,5,4,5,4,4,4,4,4,3,5,4,4,4,5,6,5,5,5,6,7,3,5,5,4,4,5,3,4,6,6,6,2,2,3,4,4,4,5,3,2,4,3,4,2,3,6,2,3,3,2,4,5,5,4,4,5,4,5,4,2,5,5,4,3,2,2,4,5,2,2,2,4,4,4,4,3,1,1,1,2,4,3,4,5,6,5,4,4,4,1,4,4,4,3,2,2,3,4,3,3,1,2,3,4,4,5,3,3,4,5,4,3,4,4,3,5,4,3,3,3,2,3,2,1,4,4,1,2,5,3,4,5,3,3,4,5,3,4,3,1,2,3,3,3,4,3
"UCSB",1995,2,7,1,3,2,1,0,0,2,NA,36.86111111,36.72222222,37,NA,64,6.111111111,5,1,2,1,NA,4,2,4,4,8,8,5,5,2,1,2,5,3,1,8,3,1,NA,1,NA,NA,NA,NA,NA,NA,NA,NA,NA,NA,3,3,4,4,4,4,3,4,3,2,4,5,4,3,3,4,2,2,2,3,2,1,2,3,5,2,2,2,2,3,2,2,1,3,2,5,4,2,1,4,2,1,1,1,1,1,1,1,1,1,1,1,1,1,1,3,1,7,1,1,1,1,1,4,1,1,1,1,1,1,1,1,1,7,1,1,1,1,1,2,1,1,1,5,5,5,5,5,5,2,2,3,6,5,5,5,6,6,6,4,4,1,4,4,1,2,1,2,2,1,3,3,1,2,2,4,6,4,2,2,4,3,2,3,4,4,3,4,3,4,4,3,2,2,4,4,2,4,2,1,3,4,4,3,5,5,5,5,5,5,5,3,1,1,1,4,5,5,3,2,2,2,2,4,3,3,1,5,5,5,4,4,1,4,4,4,4,4,1
"UCSB",1995,1,7,1,3,2,1,0,0,2,NA,36.86111111,36.94444444,36.77777778,34.05220032,84,7.222222222,5,1,2,1,NA,4,2,5,NA,3,1,4,4,1,NA,2,8,3,1,3,1,2,2,1,NA,NA,NA,NA,NA,NA,NA,NA,NA,NA,3,2,3,3,2,3,2,2,2,2,4,2,2,3,4,5,3,4,3,3,4,4,4,4,4,4,4,5,5,5,5,5,4,5,5,5,5,5,5,5,5,5,5,5,5,5,5,7,7,7,4,7,7,6,5,6,3,7,4,4,4,7,7,7,5,2,2,5,1,2,2,2,3,4,1,1,1,1,2,4,3,2,3,5,5,5,5,5,5,5,5,5,2,3,3,3,3,3,3,5,5,3,3,5,3,5,4,5,4,4,1,5,3,4,3,5,5,4,3,3,3,4,5,4,5,2,1,2,4,5,2,5,4,4,5,4,2,5,2,4,4,4,5,5,3,5,5,5,5,3,5,5,2,2,2,1,5,2,2,5,3,4,5,3,5,5,4,5,3,3,5,4,2,4,4,4,3,2,5
"Serbia",1995,2,7,1,4,2,1,0,0,2,NA,36.9,36.8,37,44.818603515625,65,10,6,1,2,1,NA,4,4,5,NA,3,1,5,3,1,NA,2,5,1,NA,NA,3,1,NA,1,NA,NA,NA,NA,NA,NA,NA,NA,NA,NA,5,4,5,5,5,4,4,5,4,5,4,3,5,1,3,3,2,1,1,1,1,2,1,3,5,1,1,2,3,2,3,1,1,2,1,4,4,4,2,4,4,2,3,3,2,1,3,1,1,1,4,4,1,2,1,NA,1,5,1,1,1,1,5,1,1,3,1,7,1,2,4,2,NA,NA,NA,NA,1,NA,5,7,7,NA,1,4,4,4,5,5,3,3,4,4,2,3,3,3,3,3,3,2,1,1,2,1,1,1,2,4,1,2,1,2,1,1,2,3,3,2,1,2,1,3,3,3,3,5,4,3,3,3,3,4,2,2,1,1,4,4,4,4,3,4,2,4,4,3,1,1,1,3,3,3,3,3,1,1,1,4,3,3,2,4,3,4,5,2,3,3,4,4,4,4,3,5,2,3,3,3,3
"Tsinghua",1995,1,4,2,4,2,1,0.5,0,2,0,36.9,36.9,36.9,30.580093383789,74,16,7,3,2,1,0,4,4,5,0,8,2,4,3,1,1,2,3,1,1,2,4,2,1,2,"Êé·¨Ð­»á",NA,NA,NA,NA,2,NA,NA,NA,NA,3,4,3,5,4,3,1,3,4,3,3,3,4,3,2,2,3,3,1,3,1,2,3,3,4,3,2,1,4,2,4,1,3,3,3,4,2,2,3,4,2,2,2,3,3,2,3,5,4,3,4,5,2,3,5,4,2,3,4,4,3,2,6,5,2,3,1,2,2,2,2,2,2,6,4,2,7,2,2,2,6,3,3,4,4,4,4,4,4,3,4,4,7,2,4,4,3,3,3,2,2,4,2,1,3,2,1,2,2,1,2,2,2,3,2,3,4,5,2,4,3,4,2,4,5,4,1,3,2,3,4,5,2,2,3,5,4,2,4,4,4,3,3,4,4,3,3,4,2,2,4,2,2,1,2,2,2,4,2,4,2,4,3,4,4,2,2,4,4,2,2,3,2,4,4,4,4,3,1
"Tsinghua",1995,2,1,2,3,2,1,0,0,2,0,36.9,36.9,36.9,30.580093383789,65,16,7,3,2,1,0,4,1,5,0,4,1,7,5,1,1,2,8,1,1,8,5,2,1,1,"ÃÎ±ÊÉú»°",NA,NA,NA,NA,7,NA,NA,NA,NA,2,2,2,4,4,4,2,3,2,2,4,2,3,3,4,2,2,2,3,3,3,4,2,4,4,4,4,2,4,2,4,3,2,1,4,4,4,4,4,4,2,4,4,2,2,4,4,3,2,2,2,3,3,1,2,2,2,2,3,5,1,2,2,3,2,3,2,3,3,3,3,3,2,3,3,2,6,2,2,3,3,3,2,4,4,4,4,4,5,4,4,4,2,2,2,3,2,2,3,2,2,2,2,2,1,2,2,2,2,2,2,4,2,2,4,4,4,4,1,2,1,3,2,2,4,4,3,4,4,4,4,4,2,1,2,4,4,2,4,4,2,2,2,4,4,2,2,4,3,4,4,4,2,2,2,2,2,4,4,2,2,4,4,4,4,2,2,4,4,2,2,4,2,3,4,4,4,2,2
"Oxford",1995,2,3,2,2,2,1,4,4,2,NA,36.9,36.8,37,51.75,74,2.777777778,5,1,2,1,NA,4,2,5,NA,4,3,4,5,1,NA,2,2,3,1,8,1,1,NA,1,NA,NA,NA,NA,NA,NA,NA,NA,NA,NA,2,3,3,3,3,3,3,2,3,3,3,3,3,3,3,3,4,4,3,3,3,3,4,3,3,4,3,4,4,2,4,2,2,3,3,3,3,2,2,2,2,2,2,2,2,2,2,2,2,2,2,3,2,2,2,6,3,2,3,3,2,2,2,3,3,2,5,2,6,2,2,2,6,5,6,6,5,6,2,6,6,6,6,3,3,3,3,3,4,4,3,3,3,3,3,3,4,4,3,3,3,3,2,3,3,3,3,3,3,3,3,3,3,4,3,4,2,3,1,2,1,1,5,5,5,4,2,3,3,4,4,5,5,2,5,5,5,4,3,3,3,3,3,3,4,4,4,4,4,3,3,3,3,3,3,2,4,4,3,4,4,3,4,4,4,2,2,3,4,2,2,2,3,2,2,3,3,3,2
"SMU",1995,2,7,2,2,2,1,1,0,2,NA,36.9,36.8,37,1.2931060791016,70,27,5,1,2,1,NA,4,4,5,NA,8,6,2,4,1,NA,2,8,1,NA,NA,4,1,NA,2,"Toastmasters",NA,NA,NA,NA,6,NA,NA,NA,NA,3,3,2,3,3,4,2,4,2,4,4,2,4,3,3,3,3,2,3,3,3,3,3,3,4,3,3,4,4,4,4,4,3,2,4,4,4,4,4,4,4,2,2,2,3,2,4,4,5,5,5,5,5,4,5,4,4,5,4,4,4,5,4,5,4,4,4,5,5,5,5,5,4,5,4,3,4,3,4,4,4,5,4,4,4,4,3,4,4,4,4,4,5,6,6,6,6,6,6,4,4,3,3,4,4,4,4,3,4,4,2,2,2,3,2,4,6,5,3,3,2,2,1,4,3,3,3,4,2,2,4,4,4,2,3,4,4,3,4,3,2,3,4,4,3,3,3,3,3,3,3,3,3,3,3,2,2,3,4,1,2,3,3,4,5,2,2,3,4,2,2,2,4,4,3,4,4,3,4
"Zurich",1995,2,7,1,3,2,1,8,4,2,NA,36.9,36.9,36.9,47.168594360352,85,10,1,1,2,1,NA,4,4,4,4,2,2,7,8,1,NA,2,6,3,1,8,4,2,8,2,"Blauring",NA,NA,NA,NA,6,NA,NA,NA,NA,2,2,2,4,2,3,2,2,2,4,3,3,4,2,3,3,2,2,2,2,3,3,2,3,3,2,2,4,4,2,4,4,2,5,4,4,5,4,5,4,5,2,2,2,3,2,5,2,4,2,2,2,1,4,2,3,1,3,2,2,4,2,1,2,1,2,2,2,1,1,2,1,2,7,2,2,1,2,2,7,6,2,2,5,5,5,5,5,4,4,5,5,5,4,4,3,4,5,4,2,1,2,2,3,2,2,1,2,1,2,1,2,1,2,1,4,5,7,4,4,5,5,2,4,3,4,2,4,4,2,4,4,4,1,3,4,4,3,2,4,4,5,4,4,4,5,5,5,5,4,4,4,1,1,2,2,3,4,3,2,4,4,2,3,4,4,2,4,5,4,4,4,4,3,4,3,3,2,4
"Oxford",1995,2,6,2,2,2,1,0,3,1,8,36.9,37,36.8,51.75,71,1.666666667,5,1,2,1,NA,4,4,5,NA,3,3,8,8,1,NA,2,8,1,NA,NA,1,1,NA,1,NA,NA,NA,NA,NA,NA,NA,NA,NA,NA,2,1,3,2,2,2,2,1,1,2,3,1,3,4,4,5,2,3,3,3,4,3,3,4,5,3,4,4,4,3,5,3,4,4,3,5,4,4,5,4,5,2,2,4,5,3,5,7,6,6,5,7,6,5,4,6,5,6,5,3,3,6,6,7,3,3,2,3,2,2,3,2,2,2,1,1,2,2,3,2,1,2,3,4,4,4,5,5,4,3,4,5,3,5,3,5,4,3,3,5,5,2,3,4,3,4,5,3,4,4,1,2,2,3,2,5,6,6,5,5,6,6,3,4,3,5,3,3,4,4,4,5,2,2,2,4,4,2,4,3,3,4,4,3,4,5,4,4,4,4,4,4,3,4,4,3,4,4,5,2,3,4,4,2,4,4,2,4,4,4,4,5,2,5,4,3,4,5,3
"METU",1995,2,7,1,4,2,1,0,0,1,20,36.95,37.1,36.8,39.911697387695,74,12,3,2,1,1,NA,4,4,4,4,8,5,5,5,1,NA,2,4,3,1,4,1,2,3,1,NA,NA,NA,NA,NA,NA,NA,NA,NA,NA,4,1,5,4,4,4,2,5,4,5,5,3,5,2,3,3,2,2,2,2,2,2,2,3,4,2,3,1,1,1,1,1,1,1,1,1,5,1,1,4,1,1,1,1,1,1,4,7,5,4,6,7,7,5,6,7,5,6,6,2,3,2,6,7,1,1,1,2,1,1,1,1,1,1,1,1,1,1,1,1,1,1,2,5,5,5,5,5,5,5,5,5,6,7,7,7,7,7,7,1,1,1,1,1,1,1,1,3,1,1,1,1,2,3,1,5,6,6,6,5,2,6,1,3,5,5,4,5,5,5,5,5,5,1,1,1,1,1,3,3,4,5,1,5,5,5,5,5,5,5,5,5,1,1,1,1,5,4,5,2,1,4,1,5,5,5,1,5,4,5,5,5,1,5,5,5,5,4,5
"Kassel",1995,2,7,2,5,2,1,0,0,2,NA,36.95,36.9,37,51.63330078125,81,3,1,1,2,1,NA,4,4,5,NA,5,4,3,3,2,3,2,8,1,NA,NA,1,2,4,1,NA,NA,NA,NA,NA,NA,NA,NA,NA,NA,5,5,5,2,5,5,5,5,4,4,5,5,4,2,4,5,2,2,1,2,2,2,1,3,5,1,2,1,2,1,2,2,1,1,2,2,2,1,1,1,1,1,1,1,1,1,1,1,1,2,1,1,2,1,2,7,2,7,2,1,1,3,2,3,3,3,3,1,3,3,2,3,5,5,4,4,4,3,5,7,7,3,3,5,5,5,5,5,4,2,5,3,3,3,4,4,5,4,4,2,2,2,2,2,2,2,2,2,2,2,2,2,1,3,2,5,7,6,6,6,3,7,2,3,2,5,4,4,5,3,4,5,2,1,2,5,4,1,2,1,2,5,4,4,5,3,4,4,4,4,3,4,2,2,2,2,1,3,2,2,3,4,4,3,4,2,1,4,4,4,4,4,4,4,5,4,2,3,3
"Poland",1995,2,6,2,2,2,1,6,2,2,NA,36.95,36.9,37,52.25,68,0,9,1,2,1,NA,4,2,5,NA,5,5,5,5,1,NA,2,3,6,2,8,1,2,1,2,"praca","uczelnia","rodzina","trening","przyjaciele",15,2,10,5,4,2,3,3,4,4,4,1,3,2,1,4,4,5,4,2,3,5,5,5,2,1,5,3,4,4,3,2,2,3,4,2,1,1,3,1,4,3,3,3,4,4,1,1,2,1,1,2,2,2,2,2,5,2,2,4,1,1,6,2,2,2,4,3,5,1,4,2,1,2,3,4,2,7,2,2,2,4,5,2,5,7,5,2,5,4,5,5,5,5,4,5,5,3,3,3,3,4,2,3,3,2,4,1,2,2,3,3,2,2,2,3,1,2,3,2,5,5,4,4,2,6,4,4,2,1,5,4,2,2,2,3,5,2,2,3,2,2,2,5,4,2,4,5,4,5,3,3,4,4,3,4,4,2,2,2,1,3,3,3,2,1,3,2,1,2,2,4,5,5,3,3,5,4,4,4,5,5,3,5
"Tsinghua",1995,2,5,2,3,2,1,1,0,2,0,36.95,37.1,36.8,39.928894042969,21,11,7,3,2,1,0,4,4,5,0,8,2,8,3,1,1,2,8,1,1,1,1,2,1,2,NA,NA,NA,NA,NA,0,0,0,0,0,3,3,2,3,3,4,2,3,2,4,3,3,3,2,2,2,2,3,2,3,3,3,3,2,4,2,2,3,4,2,4,4,4,3,4,4,4,4,4,4,3,2,2,2,2,2,4,4,2,2,5,4,5,3,5,3,3,3,3,3,2,3,2,5,2,5,3,2,3,4,5,4,2,4,3,3,5,3,3,2,2,3,4,5,5,5,4,5,5,5,5,5,4,4,3,3,4,3,4,3,3,2,3,3,4,4,4,3,3,3,2,3,2,3,2,4,5,5,2,5,2,4,4,3,4,4,1,3,2,2,2,4,2,1,2,4,4,2,4,4,2,3,4,4,3,4,3,4,4,3,3,3,3,2,2,2,2,3,2,2,2,4,3,4,3,3,1,4,3,4,3,3,3,4,3,3,3,2,4
"Tsinghua",1995,1,7,1,1,2,1,9,4,1,10,36.95,37,36.9,30.580093383789,74,16,7,3,2,1,0,4,4,5,0,8,1,8,6,1,1,2,3,3,1,2,7,2,1,1,"Ó¢Óï»°¾çÉç",NA,NA,NA,NA,1,NA,NA,NA,NA,2,3,2,4,2,2,1,1,1,2,2,1,2,4,4,2,3,4,3,4,4,4,4,4,2,4,2,4,4,3,4,3,4,4,4,4,4,4,3,4,3,2,3,3,3,4,4,6,5,5,6,6,4,5,6,6,5,6,7,5,5,5,5,6,5,6,3,3,2,2,3,2,6,6,3,3,6,3,2,3,5,2,5,5,5,5,5,5,5,5,5,5,5,2,4,7,6,5,6,4,2,4,3,4,4,4,4,3,2,2,2,2,2,1,1,4,5,7,2,2,3,3,2,4,5,4,3,3,3,5,4,4,2,1,3,5,5,4,5,5,2,3,4,5,4,4,3,4,4,2,4,4,2,2,2,4,2,5,4,4,2,4,4,3,4,2,3,5,4,3,4,2,2,5,3,2,5,2,2
"Kassel",1995,2,4,1,4,2,1,2,0,2,NA,37,37.03,36.97,51.757095336914,81,3,1,1,1,1,NA,4,2,4,4,5,5,3,3,2,1,2,7,1,NA,NA,1,1,NA,1,NA,NA,NA,NA,NA,NA,NA,NA,NA,NA,4,3,4,4,4,4,4,4,3,4,5,4,5,2,3,3,3,2,2,2,3,2,2,3,4,2,2,3,1,1,2,4,1,2,2,2,2,1,4,1,1,1,1,1,1,1,2,2,3,2,2,2,3,5,2,4,2,2,2,2,1,2,1,2,2,2,2,5,3,1,1,1,2,2,2,2,2,2,1,4,4,2,2,4,4,4,4,4,4,3,4,4,5,5,5,4,4,4,5,2,2,1,2,2,2,2,2,2,2,1,2,2,2,4,2,4,5,6,3,3,4,3,4,3,3,4,2,3,2,2,3,4,4,1,3,3,3,3,2,2,2,4,4,3,4,3,3,3,3,3,2,2,1,1,4,4,2,4,3,2,2,3,3,4,4,2,2,4,4,2,2,3,2,4,2,4,4,2,4
"UCSB",1995,2,7,2,4,2,1,0,0,2,NA,37,37,37,34.41940308,45,6.111111111,5,1,2,1,NA,4,2,5,NA,6,1,6,6,1,NA,2,8,1,NA,NA,3,1,NA,1,NA,NA,NA,NA,NA,NA,NA,NA,NA,NA,5,2,5,4,3,3,5,4,4,4,4,4,4,2,2,4,3,3,3,3,2,3,2,3,5,2,3,4,2,2,2,2,2,2,4,4,4,2,2,4,2,1,2,2,2,2,2,3,3,2,2,3,2,2,5,3,3,3,2,2,2,3,2,5,2,2,2,6,5,5,3,6,5,6,2,3,2,1,5,6,6,5,3,4,4,4,5,5,4,3,4,4,4,5,4,4,5,4,4,2,2,1,2,2,1,2,2,2,4,4,2,2,2,2,2,3,4,5,2,2,3,3,1,4,2,4,2,4,4,4,4,4,2,1,2,2,4,2,4,4,2,2,4,4,4,3,4,4,4,3,2,4,2,2,2,2,5,4,4,2,2,2,4,4,2,2,1,4,4,2,2,4,2,4,2,4,4,2,4
"SMU",1995,2,7,1,3,2,1,2,0,2,NA,37,37,37,NA,70,27,5,1,2,1,NA,4,4,5,NA,4,3,6,6,2,3,2,8,1,NA,NA,1,1,NA,2,"Muslim Society","Tax Group","Study Buddies","Company Law Group","DA Group",5,3,2,2,1,1,1,2,4,2,3,1,1,2,1,2,1,5,4,3,3,3,3,2,4,3,3,4,3,5,3,5,2,4,2,4,4,3,1,2,4,4,4,4,4,4,4,4,4,3,4,4,6,1,2,6,2,6,5,5,5,2,6,2,2,2,3,5,7,2,6,2,6,2,6,6,6,2,2,2,2,4,2,4,5,6,3,2,4,2,3,3,2,4,3,3,3,3,6,6,5,5,3,3,4,4,2,3,4,3,4,2,2,4,2,2,4,2,4,3,3,3,4,3,3,3,3,2,4,4,4,2,4,2,1,3,4,2,2,4,4,4,4,3,2,2,2,4,2,3,4,4,2,1,4,4,3,2,2,2,2,2,3,4,2,2,4,4,2,4,2,2,3,4,4,4,3,2,4,4,3,3,4,4
"Tsinghua",1995,2,7,1,2,2,1,0,0,2,0,37,36.8,37.2,30.580093383789,79,17,7,3,2,1,0,4,1,5,0,2,1,3,3,1,1,2,8,1,1,1,4,2,1,2,NA,NA,NA,NA,NA,NA,NA,NA,NA,NA,3,4,4,3,4,3,2,4,1,3,4,3,3,3,3,3,3,3,2,3,3,3,3,2,3,2,2,4,4,2,4,2,2,2,4,4,4,3,4,4,2,3,3,3,3,3,3,4,4,5,4,5,4,5,5,4,3,5,3,4,5,6,4,4,2,3,3,4,3,3,4,4,2,4,4,4,6,4,5,3,4,3,4,3,3,2,2,2,3,3,3,3,5,2,2,4,4,4,4,3,3,2,2,3,2,4,3,3,2,2,2,3,2,3,2,4,6,4,6,6,4,6,2,2,4,4,2,2,2,2,4,4,3,1,3,2,2,2,4,4,4,3,3,3,4,4,4,4,2,2,3,3,3,3,3,2,4,3,3,2,3,3,4,4,4,4,4,4,4,3,2,4,2,4,3,4,4,3,4
"SMU",1995,2,7,2,4,2,1,2,0,2,NA,37,37,37,1.2931060791016,70,26,5,1,2,1,NA,4,2,5,NA,4,2,6,6,2,8,2,8,3,1,5,2,1,NA,1,NA,NA,NA,NA,NA,NA,NA,NA,NA,NA,2,2,2,4,5,5,1,3,2,1,2,2,2,4,3,4,4,4,4,2,4,4,5,2,3,3,4,3,4,2,2,2,4,4,3,5,4,4,2,4,2,1,4,2,4,2,2,4,5,5,2,6,5,2,5,4,1,5,2,2,1,5,3,2,2,4,3,3,3,2,2,2,3,4,4,6,5,5,2,3,3,4,4,4,4,4,4,3,3,3,3,4,5,7,5,4,4,4,4,2,2,1,2,3,1,4,2,2,4,1,2,4,3,2,4,5,2,1,4,1,1,1,4,4,3,3,1,4,3,4,3,4,2,1,4,3,4,4,2,2,3,3,3,3,4,4,4,4,4,4,4,3,2,2,3,3,1,2,4,4,4,2,2,2,2,2,2,4,4,3,4,4,3,4,4,4,4,2,1
"Tsinghua",1995,2,7,2,2,2,1,1,0,2,0,37,37,37,30.666702270508,83,17,7,3,2,1,0,4,4,5,0,1,0,3,3,1,1,2,6,1,1,1,1,2,1,2,NA,NA,NA,NA,NA,NA,NA,NA,NA,NA,3,2,2,3,4,5,1,3,2,2,2,3,3,2,2,2,4,4,4,5,2,4,5,1,2,5,3,4,4,2,3,4,3,2,4,4,4,4,4,4,2,2,2,2,4,3,4,4,4,4,4,4,4,4,4,4,4,4,4,4,4,4,4,4,4,4,4,4,4,4,4,4,4,4,4,4,4,4,4,4,4,4,4,4,4,3,4,4,4,4,4,4,3,3,3,6,6,5,5,3,3,3,3,3,3,3,3,3,3,3,3,3,3,3,3,4,4,5,1,4,1,1,3,3,4,4,1,2,2,2,2,4,3,2,3,3,3,3,4,4,2,2,4,4,2,2,2,3,3,3,3,3,3,3,3,3,2,3,3,2,2,3,4,3,3,2,4,4,4,2,2,2,3,2,2,2,3,2,3
"VCU",1995,2,1,1,5,2,2,3,2,2,NA,37,36.94444444,37.05555556,37.552597045898,81,14.44444444,5,1,2,1,NA,4,4,5,NA,4,2,8,8,1,NA,2,4,3,1,4,1,2,2,2,"Service learning","zta",NA,NA,NA,1,5,NA,NA,NA,5,4,4,3,5,4,2,4,2,3,5,4,2,3,4,4,3,3,3,3,3,3,3,2,5,2,3,4,4,3,5,2,2,3,4,5,4,5,4,4,4,2,4,4,2,3,4,3,3,5,4,3,2,3,4,4,4,5,3,4,4,3,3,6,6,3,4,5,4,3,4,3,4,4,7,3,1,2,4,5,4,3,3,5,5,5,5,5,5,3,5,5,4,5,6,6,7,5,6,3,3,1,2,1,1,3,3,2,1,3,3,3,2,3,3,4,5,7,6,6,6,6,2,2,4,4,4,4,4,5,5,2,2,3,3,4,4,3,4,3,2,2,5,5,5,5,5,4,3,4,2,3,2,1,4,4,4,3,2,1,4,4,4,4,5,3,2,5,5,4,5,3,2,4,4,4,4,2,3
"UCSB",1995,2,7,2,3,2,1,4,0,2,NA,37,37,37,34.50210571,87,8.333333333,5,1,2,1,NA,4,4,3,4,7,1,5,5,1,NA,2,3,3,1,3,1,2,1,1,NA,NA,NA,NA,NA,NA,NA,NA,NA,NA,5,4,3,1,1,3,2,4,1,4,5,3,1,5,3,5,1,2,2,3,4,1,3,4,5,1,5,3,4,3,5,4,3,5,5,5,5,5,5,5,5,3,3,5,3,5,5,7,7,2,7,7,7,1,7,7,1,6,7,5,7,7,7,7,1,1,1,3,1,1,1,3,1,7,3,1,1,1,2,1,1,1,1,5,5,5,5,5,5,5,3,3,6,7,7,7,7,7,7,3,2,5,1,3,4,5,1,1,3,2,3,1,1,1,1,5,4,7,2,3,6,6,1,5,5,5,1,1,5,5,5,5,5,1,5,5,5,2,5,4,5,5,5,5,5,5,1,5,3,2,5,1,1,1,1,1,3,3,1,1,1,5,5,5,5,5,3,5,5,5,5,5,2,5,5,1,3,1,4
"Tsinghua",1995,2,6,2,4,2,1,0,0,1,1,37.05,36.9,37.2,35,72,14,7,3,2,1,0,4,2,5,0,2,2,6,6,1,1,2,8,1,1,1,1,2,1,2,NA,"na","na","na","na",NA,NA,NA,NA,NA,2,3,3,4,3,2,2,2,2,3,3,3,4,2,3,2,3,3,2,3,2,2,3,3,2,2,2,2,2,2,4,3,2,1,2,3,2,2,2,2,2,2,2,2,2,4,2,5,3,3,4,4,5,5,4,3,4,2,2,4,2,2,2,5,2,2,3,3,3,2,3,5,3,2,3,3,2,3,5,6,6,5,4,5,5,3,5,5,4,4,4,4,6,3,5,3,4,6,6,4,2,2,2,3,2,3,2,2,3,2,2,2,2,3,2,5,6,4,2,2,5,4,3,5,5,5,1,2,2,3,2,5,2,2,4,5,2,3,2,3,2,2,3,5,4,3,2,3,3,3,3,3,3,3,2,1,2,4,3,2,4,4,4,3,3,3,4,4,3,2,2,2,2,4,3,4,3,4,2
"Tsinghua",1995,1,7,1,2,2,1,0,0,2,0,37.05,37,37.1,30.580093383789,74,16,7,3,2,1,0,4,4,5,0,6,3,6,4,1,1,2,3,3,1,2,1,2,1,2,NA,NA,NA,NA,NA,NA,NA,NA,NA,NA,4,4,4,4,4,4,2,4,2,3,4,2,4,2,2,2,2,2,2,2,2,2,2,2,4,2,2,2,2,2,2,2,2,2,4,4,4,2,2,2,2,2,2,2,2,2,2,6,2,2,5,6,3,2,3,3,3,2,2,2,3,2,2,4,2,6,2,4,2,2,2,2,2,2,2,2,2,2,6,2,5,2,2,4,4,4,4,4,4,4,4,4,2,2,4,2,2,2,2,2,2,2,2,2,2,2,2,2,2,2,2,2,2,4,2,2,2,4,2,2,1,2,2,4,4,4,2,4,4,4,4,4,2,2,4,2,2,2,4,4,2,2,2,4,4,2,2,4,4,4,4,4,2,2,4,2,4,4,4,2,2,4,4,4,4,2,2,4,4,2,2,2,2,2,2,2,4,2,2
"Serbia",1995,2,3,2,3,2,1,0,0,2,NA,37.05,37,37.1,44.818603515625,70,1,6,1,2,1,NA,4,4,5,NA,3,1,4,3,1,NA,2,3,1,NA,NA,1,1,NA,1,NA,NA,NA,NA,NA,NA,NA,NA,NA,NA,2,4,4,2,3,3,4,3,2,4,3,2,3,4,2,3,3,3,3,4,4,2,2,3,4,3,4,2,3,3,2,4,2,1,3,2,4,4,3,2,2,1,1,1,3,2,2,4,2,2,2,2,5,8,2,3,2,NA,2,2,2,5,5,4,5,5,4,8,4,4,3,5,5,6,4,3,6,6,8,6,7,3,6,5,4,4,4,4,4,4,4,4,5,5,5,4,3,4,5,3,2,3,2,2,4,3,4,4,4,2,2,2,1,2,2,5,4,3,4,4,1,1,4,2,4,2,1,2,2,2,2,4,4,2,2,2,4,3,3,4,3,2,3,2,3,4,3,2,2,4,4,3,2,2,3,3,1,4,2,2,2,4,2,4,2,3,4,4,4,2,2,2,2,2,4,2,3,3,2
"SMU",1995,2,7,1,2,2,1,11,1,2,NA,37.05,37,37.1,1.2931060791016,71,26,5,1,2,1,NA,4,4,5,NA,1,NA,1,2,2,2,2,3,1,NA,NA,3,1,NA,1,NA,NA,NA,NA,NA,NA,NA,NA,NA,NA,1,1,1,2,2,4,1,2,2,1,2,2,2,5,4,4,3,1,2,3,4,3,2,5,4,2,5,3,1,1,5,1,5,5,5,1,3,1,5,5,1,1,5,1,1,1,1,7,7,7,7,7,7,7,7,7,7,7,7,7,7,1,7,7,7,1,1,1,1,1,1,7,4,1,1,7,1,1,1,1,1,1,7,5,5,5,5,5,5,3,5,5,7,7,7,7,6,6,7,5,5,1,5,5,5,5,4,2,5,4,1,3,2,3,1,4,3,6,2,4,4,4,4,2,4,2,1,1,1,5,5,5,3,5,2,1,5,1,1,3,3,5,4,1,5,5,5,5,5,3,5,4,1,1,1,1,1,3,3,4,1,1,1,5,4,5,4,3,5,5,5,1,1,5,5,1,3,1,5
"Tsinghua",1995,1,4,1,2,2,1,2,0,2,0,37.05,37.2,36.9,30.666702270508,87,11,7,3,2,1,0,4,1,4,1,8,1,8,8,1,1,2,8,3,3,8,8,2,1,1,"DNF¹Ù·½²âÊÔÍÅ","CFºËÐÄ¾ºÆ·×é","Éó¼Æ×¨ÒµÈý°à","ÐÖµÜ»ï´µ»áÉ§¿Ç×Ó",NA,NA,NA,NA,12,NA,1,2,5,3,5,4,1,1,1,3,2,3,4,2,3,2,2,2,2,3,3,2,3,2,2,5,2,4,4,3,4,3,3,4,4,4,3,3,2,4,2,2,4,2,2,2,3,6,7,6,6,7,2,7,6,6,4,5,4,4,2,4,6,6,2,2,1,3,2,3,2,3,2,1,1,2,2,2,3,2,3,1,3,4,4,4,4,4,3,5,4,4,3,1,3,6,6,4,5,2,2,2,2,2,2,2,2,3,2,2,2,3,2,3,2,4,6,6,2,6,5,4,1,3,4,4,2,4,2,3,3,4,3,2,2,4,3,2,4,2,3,4,1,3,4,3,3,4,3,3,4,4,2,3,3,3,3,4,5,3,1,4,4,3,4,3,2,3,4,4,4,4,2,3,3,3,3,4,2
"UCSB",1995,2,7,1,3,2,1,0,0,2,NA,37.05555556,37,37.11111111,34.4329071,81,12.22222222,5,1,2,1,NA,4,4,4,1,5,5,4,4,1,NA,2,8,3,1,6,1,1,NA,2,"on campus club",NA,NA,NA,NA,10,NA,NA,NA,NA,4,2,4,4,2,3,3,2,2,3,4,3,2,2,3,5,2,3,2,2,2,3,2,3,5,2,2,2,4,2,4,2,2,2,4,4,5,2,3,3,2,1,1,1,4,1,3,1,2,1,2,1,1,2,2,4,1,2,2,2,2,2,1,3,1,2,1,4,1,2,2,2,2,6,2,2,2,2,2,3,3,2,2,4,5,5,5,5,5,3,5,5,3,4,3,3,3,2,2,2,2,2,2,1,1,2,1,1,1,2,2,2,3,3,2,4,5,6,4,4,4,3,2,4,4,4,2,4,3,4,4,4,2,1,4,2,2,4,2,3,2,3,4,3,4,5,4,5,5,2,4,4,1,1,1,4,4,4,2,2,2,3,3,4,3,2,4,4,2,2,2,3,4,2,2,4,2,4,1
"VCU",1995,2,7,2,4,2,1,4,0,2,NA,37.08333333,37.11111111,37.05555556,37.552200317383,52,7.222222222,5,1,2,1,NA,4,4,5,NA,1,NA,2,2,2,1,2,6,3,1,5,2,1,NA,2,"BAC",NA,NA,NA,NA,6,NA,NA,NA,NA,4,5,4,1,2,2,3,3,2,1,4,5,3,3,5,5,3,3,3,4,4,3,3,4,5,3,2,3,4,2,3,2,3,3,2,2,4,4,4,4,3,2,2,2,1,2,3,2,3,4,3,3,5,5,3,3,2,4,3,2,2,4,4,4,3,7,5,7,4,5,5,5,4,5,4,4,3,4,6,4,4,5,4,5,5,5,5,5,5,5,5,5,7,6,6,6,5,5,5,4,4,2,4,2,3,4,3,5,2,2,2,3,2,2,3,3,4,4,1,3,1,1,1,2,2,5,5,4,4,5,3,2,2,3,1,2,4,2,3,2,4,3,3,4,4,5,5,4,5,4,3,3,2,1,3,2,5,4,3,4,2,3,4,4,3,2,1,3,4,2,3,3,2,4,3,4,3,2,4
"UCSB",1995,1,6,1,3,2,1,17,0,1,2,37.09722222,37.03333333,37.16111111,34.50210571,65,9.444444444,5,1,2,1,NA,4,4,4,1,5,1,8,8,1,NA,2,3,1,NA,NA,5,1,NA,1,NA,NA,NA,NA,NA,NA,NA,NA,NA,NA,3,3,2,1,2,3,2,2,1,4,4,4,5,3,1,3,2,2,2,3,2,2,2,3,4,2,4,1,3,1,1,1,3,3,1,2,1,1,1,1,1,1,1,1,1,1,1,2,4,2,2,2,6,6,2,3,2,6,2,2,2,6,2,2,2,2,2,5,2,2,3,2,3,2,4,4,4,2,5,2,2,2,2,4,4,4,4,4,1,1,3,4,6,7,5,5,5,6,5,2,3,3,2,2,2,3,2,2,2,3,2,1,3,3,2,4,5,3,2,2,1,1,3,3,4,4,4,2,2,2,3,4,2,2,2,2,5,3,2,3,2,3,4,2,3,2,2,3,2,2,2,2,2,2,2,1,2,4,2,2,1,3,4,3,2,2,2,2,5,2,2,2,3,4,2,2,3,4,1
"UCSB",1995,2,6,1,4,2,2,8,0,2,NA,37.11111111,36.88888889,37.33333333,34.4329071,60,9.444444444,5,1,2,1,NA,4,4,5,NA,4,2,6,6,1,NA,2,4,3,1,4,3,2,8,1,NA,NA,NA,NA,NA,NA,NA,NA,NA,NA,3,3,3,2,2,3,5,4,4,3,4,2,2,3,3,4,2,3,2,2,3,3,3,3,5,3,2,3,4,2,4,3,3,2,3,4,4,4,4,4,4,2,2,3,4,3,4,3,3,1,5,5,4,2,4,2,2,6,3,4,4,5,3,4,1,2,2,3,2,2,2,3,2,2,2,2,2,3,4,2,2,2,2,4,4,4,4,4,4,4,3,3,7,5,5,5,6,5,6,3,3,2,2,3,2,4,3,2,4,2,2,2,2,2,2,4,5,6,5,4,4,4,2,3,3,2,2,4,3,4,4,4,3,2,2,4,4,3,3,4,4,4,3,3,4,5,5,4,4,3,3,3,2,2,3,4,3,3,4,2,4,3,4,4,4,4,2,3,4,4,4,3,2,4,3,3,3,2,4
"UCSB",1995,2,7,1,4,2,1,2,0,2,NA,37.13888889,37,37.27777778,34.4329071,83,11.11111111,5,1,2,1,NA,4,4,4,1,5,2,8,8,2,2,2,2,3,1,6,1,1,NA,1,NA,NA,NA,NA,NA,NA,NA,NA,NA,NA,5,4,4,5,5,5,4,3,4,5,4,5,5,2,2,4,2,3,2,4,2,3,2,3,4,3,2,1,3,2,1,2,1,3,2,3,4,3,2,4,2,2,2,2,2,2,4,1,2,1,2,2,1,2,2,2,2,1,1,1,1,1,1,2,2,2,1,2,2,2,2,2,2,2,2,2,1,1,1,1,2,1,2,5,5,5,5,5,3,1,3,3,5,6,6,6,7,5,5,2,2,1,2,2,2,2,2,2,2,2,2,4,2,4,2,3,3,4,2,2,2,2,1,2,4,4,1,1,2,3,4,4,4,2,4,2,2,4,2,2,3,3,2,2,4,3,3,4,4,4,4,4,2,2,3,3,4,4,4,4,1,2,3,3,4,3,2,4,4,2,2,4,2,2,2,4,4,2,4
"Tsinghua",1995,2,6,2,2,2,1,1,0,2,0,37.15,37.1,37.2,30.580093383789,71,14,7,3,2,1,0,4,1,5,0,2,1,4,1,2,1,2,4,1,1,1,1,2,1,1,"Ö¾Ô¸ÕßÐ­»á",NA,NA,NA,NA,2,NA,NA,NA,NA,2,4,1,2,4,3,1,3,2,4,4,2,4,2,3,3,3,4,4,4,2,4,4,4,3,3,2,3,4,3,4,3,3,4,2,4,4,3,3,4,2,2,2,2,2,3,2,4,2,2,5,4,5,2,5,6,4,3,4,3,2,3,2,5,2,3,2,4,4,4,3,5,5,6,3,2,6,2,6,3,6,5,4,2,2,2,2,2,2,2,2,2,3,2,5,4,6,6,6,2,4,1,4,3,2,4,4,2,2,2,2,2,1,3,2,4,2,4,2,2,2,2,2,5,4,3,1,2,1,3,2,5,4,1,4,3,3,3,4,3,2,2,2,4,2,2,2,3,3,3,3,3,3,3,2,4,5,4,3,1,2,4,2,4,3,4,2,3,3,3,2,2,2,2,2,2,2,2,2
"Tsinghua",1995,2,7,2,3,2,1,12,4,2,0,37.15,37.2,37.1,30.580093383789,71,14,7,3,2,1,0,4,4,5,0,4,4,6,6,1,1,2,8,1,1,1,4,2,2,2,NA,NA,NA,NA,NA,NA,NA,NA,NA,NA,3,2,3,3,4,2,2,2,2,2,3,2,3,2,3,4,3,3,4,3,4,4,2,2,3,1,4,4,4,2,4,4,4,4,4,5,4,4,4,4,4,4,4,4,3,2,4,2,3,4,3,6,4,5,4,3,2,2,3,5,3,2,5,3,2,4,2,6,5,3,6,2,5,5,3,1,4,2,2,3,5,4,5,4,4,4,5,5,4,5,5,4,3,2,4,3,4,5,5,2,4,2,3,2,2,3,4,3,3,2,3,2,2,3,3,4,6,5,5,6,2,5,2,4,4,4,3,2,2,3,4,4,3,1,2,4,4,3,4,4,2,2,4,5,4,3,4,4,3,3,4,4,2,2,3,2,5,5,4,4,2,4,3,3,4,4,4,4,4,3,3,4,2,3,2,4,4,2,3
"Tsinghua",1995,2,7,1,5,2,1,0,0,2,0,37.15,37.1,37.2,30.580093383789,65,16,7,3,2,1,0,4,4,5,0,3,1,4,2,1,1,2,8,2,1,1,1,2,1,2,NA,NA,NA,NA,NA,NA,NA,NA,NA,NA,3,5,2,4,5,5,1,2,3,2,3,4,3,2,2,2,2,3,1,2,2,2,4,2,4,3,1,5,5,4,5,2,4,5,3,5,4,4,4,4,3,3,3,3,2,4,4,4,3,4,4,6,5,4,5,3,3,2,2,4,3,3,2,4,3,3,2,2,2,2,2,2,2,2,3,4,2,3,2,2,3,2,4,3,3,3,3,4,3,4,3,4,1,1,3,3,2,2,2,3,3,1,3,3,3,2,3,4,2,2,2,3,3,3,2,3,4,4,4,4,1,4,1,3,5,5,1,5,2,2,4,5,3,1,1,4,4,4,4,4,2,2,4,5,4,3,3,5,4,3,4,3,1,3,1,4,4,3,3,2,3,4,3,2,3,3,2,5,4,4,3,2,3,3,4,3,3,2,4
"Tsinghua",1995,2,7,2,3,2,1,3,0,2,0,37.2,37.1,37.3,30.580093383789,65,16,7,3,2,1,0,4,1,5,0,1,0,4,3,1,1,2,2,3,1,2,3,2,1,1,"Ìù°É",NA,NA,NA,NA,NA,NA,NA,NA,NA,3,1,1,2,3,5,1,2,1,1,3,2,3,3,3,3,3,2,1,2,4,2,3,3,4,3,3,5,4,4,4,5,3,3,5,5,4,4,5,5,4,4,4,2,4,4,3,6,6,6,7,6,6,6,6,3,3,1,4,5,1,6,6,6,3,6,1,7,4,3,6,6,3,4,2,3,3,1,5,2,3,3,5,5,5,5,5,4,4,5,5,5,4,2,4,4,5,6,5,4,4,4,3,4,2,4,2,3,3,4,4,4,2,4,2,3,3,4,2,2,3,4,2,4,4,4,1,2,2,4,2,4,2,2,1,5,3,2,2,3,1,1,4,4,4,2,3,5,5,3,4,5,1,1,1,4,4,4,5,1,2,4,4,3,4,3,2,5,4,4,2,3,3,3,5,4,4,2,3
"UCSB",1995,1,3,2,3,2,2,0,0,2,NA,37.22222222,37.5,36.94444444,NA,62,16.66666667,5,1,2,1,NA,4,3,2,1,4,1,4,4,1,NA,2,2,1,NA,NA,1,1,NA,1,NA,NA,NA,NA,NA,NA,NA,NA,NA,NA,3,3,5,3,2,3,1,3,3,3,4,4,3,3,4,4,2,3,3,3,4,2,3,3,4,3,4,3,4,3,4,2,4,4,4,4,4,2,4,3,3,1,3,2,1,2,4,4,4,4,4,4,4,4,4,4,4,4,4,5,4,4,4,3,4,4,4,4,5,4,4,4,4,4,4,4,4,4,4,4,4,4,4,5,4,4,4,4,4,4,4,4,2,4,4,4,4,2,2,3,3,3,2,3,3,3,3,3,3,3,2,3,2,3,3,5,5,3,2,2,5,2,3,5,4,3,1,2,3,3,2,5,4,3,4,5,4,3,2,3,2,4,4,3,4,4,4,3,3,4,3,3,3,3,3,3,3,3,3,3,4,3,4,4,3,3,3,3,3,3,3,3,4,4,4,3,2,3,3
"Serbia",1995,2,6,1,1,2,1,0,0,1,4,37.25,37,37.5,44.818603515625,44,12,6,1,2,1,NA,4,4,4,2,5,1,4,4,1,NA,2,8,1,NA,NA,1,1,NA,1,NA,NA,NA,NA,NA,NA,NA,NA,NA,NA,3,3,3,2,4,5,1,5,1,1,5,3,4,3,4,4,3,2,2,3,4,3,3,4,4,2,4,2,2,2,2,3,2,3,2,2,3,3,3,3,3,3,2,3,3,2,3,2,3,8,2,4,2,2,2,NA,2,4,2,3,2,5,2,5,8,5,NA,7,NA,2,4,5,5,5,NA,4,NA,NA,5,6,6,4,NA,2,3,2,2,2,2,1,2,2,7,5,5,5,5,6,5,5,5,2,4,5,5,5,5,4,5,4,1,1,1,2,1,5,7,5,6,7,7,5,1,3,3,4,1,5,3,4,5,5,4,4,2,3,5,5,5,5,5,5,1,4,4,1,3,5,5,2,5,5,5,3,3,1,1,5,4,4,1,3,2,5,3,2,1,4,4,2,4,4,2,2,4,4,3,2,4
"VCU",1995,2,7,1,4,2,1,6,0,2,NA,37.27777778,37.11111111,37.44444444,37.552200317383,91,14.44444444,5,1,2,1,NA,4,4,5,NA,4,1,7,7,2,1,2,3,1,NA,NA,1,1,NA,1,NA,NA,NA,NA,NA,NA,NA,NA,NA,NA,3,3,4,3,4,2,3,2,4,4,4,5,4,3,3,3,3,3,3,3,3,3,3,3,3,3,3,3,3,3,3,3,3,3,3,3,3,3,3,3,3,3,3,3,3,3,3,2,2,2,4,2,3,3,2,2,3,2,2,2,3,2,2,2,3,2,2,2,2,3,2,3,3,2,2,2,2,2,3,2,2,2,2,4,4,4,4,4,4,4,4,4,3,3,2,2,2,2,2,2,3,2,3,2,2,2,2,4,2,2,2,2,2,3,3,4,4,1,1,1,1,1,4,2,2,4,3,3,5,3,3,3,2,2,3,3,2,2,2,2,3,3,4,4,4,4,4,4,4,4,3,3,2,2,3,2,4,4,4,2,2,4,4,4,3,3,2,3,4,4,3,4,3,4,3,3,3,4,3
"Kassel",1995,2,7,1,4,2,1,0,0,1,10,37.3,37.4,37.2,49.991592407227,79,0,1,1,1,1,NA,4,4,4,4,4,2,3,3,1,NA,2,3,3,1,1,3,1,NA,1,NA,NA,NA,NA,NA,NA,NA,NA,NA,NA,2,3,3,5,2,3,2,2,2,3,2,4,2,3,3,2,2,2,3,3,3,3,3,3,4,2,3,2,4,2,4,2,2,2,2,4,4,4,4,4,2,1,1,2,4,1,2,3,2,2,1,1,1,6,1,3,1,6,1,1,2,1,1,2,1,1,1,1,1,1,1,1,1,7,1,1,1,1,1,3,3,1,1,5,5,5,5,4,4,4,5,5,5,5,5,5,5,5,5,3,3,1,3,4,3,3,2,1,1,2,2,2,2,2,2,5,7,7,7,7,5,5,5,3,4,5,3,2,2,4,2,4,3,2,4,4,2,3,2,2,2,4,2,3,3,4,4,4,4,3,3,3,1,1,1,1,4,4,3,2,3,2,4,2,4,4,4,4,2,4,4,4,2,3,3,4,3,4,2
"Tsinghua",1995,2,1,1,4,2,1,1,0,2,0,37.35,37.4,37.3,30.580093383789,87,17,7,3,2,1,0,4,4,5,0,6,3,5,3,1,1,2,3,3,1,2,1,2,1,2,NA,NA,NA,NA,NA,NA,NA,NA,NA,NA,3,4,4,4,4,4,1,4,2,3,3,4,3,1,2,2,3,4,2,4,2,3,4,2,3,4,2,5,4,3,5,4,3,2,4,5,5,5,5,3,1,4,1,4,1,4,5,3,2,3,2,6,1,6,6,6,2,5,1,2,2,2,2,2,1,2,2,2,1,2,1,2,2,4,2,2,2,2,2,1,2,6,3,4,3,4,3,4,2,4,4,4,2,1,1,4,3,2,2,2,3,5,1,5,4,5,1,1,3,1,2,5,1,4,1,4,6,4,6,4,3,4,1,1,4,5,1,2,1,2,2,5,2,1,1,5,3,2,1,3,4,2,4,4,4,4,2,4,4,4,5,5,2,2,1,2,5,4,2,1,1,4,2,4,4,5,1,5,5,5,4,4,2,5,5,3,3,5,1
"SMU",1996,1,7,2,5,2,1,0,1,2,NA,35,34.8,35.2,1.2931060791016,71,26,5,1,2,1,NA,4,3,5,NA,4,2,2,2,2,1,2,8,1,NA,NA,4,1,NA,1,NA,NA,NA,NA,NA,NA,NA,NA,NA,NA,4,3,4,3,3,4,2,3,3,4,4,4,5,3,2,2,2,2,2,2,2,4,2,5,4,3,2,3,4,3,2,4,4,3,4,4,2,3,4,4,3,2,4,3,4,4,3,7,6,6,7,5,5,5,7,6,1,1,6,4,4,3,5,5,3,5,2,3,2,2,2,2,4,4,3,2,3,4,2,2,3,2,2,4,5,4,4,5,4,3,4,5,5,5,4,3,4,4,3,3,2,3,4,4,2,3,4,2,4,2,4,3,3,3,2,4,4,3,1,1,3,4,4,2,4,4,3,4,3,4,3,4,2,3,3,4,4,4,3,3,2,5,4,3,3,4,2,4,5,2,4,5,2,1,3,2,3,5,3,4,2,3,4,3,4,3,3,4,2,3,4,2,3,3,3,4,2,3,4
"METU",1996,2,6,2,3,2,1,9,0,2,NA,35.05,35,35.1,39.911697387695,64,2,3,2,2,1,NA,4,4,5,NA,7,7,8,8,1,NA,2,8,1,NA,NA,1,1,NA,1,NA,NA,NA,NA,NA,NA,NA,NA,NA,NA,3,5,3,4,4,4,2,1,2,3,4,2,4,3,3,4,2,2,2,2,3,2,2,4,4,2,3,4,4,4,4,2,2,4,2,3,5,4,4,3,5,1,3,1,1,1,5,1,2,2,4,5,3,4,4,4,2,3,1,4,1,2,2,3,2,5,5,6,7,6,6,7,7,5,5,3,7,4,6,7,7,4,4,4,4,4,3,4,3,2,2,4,4,6,4,5,3,3,3,2,2,1,3,1,2,3,4,2,3,2,2,2,4,3,4,5,7,4,2,4,2,1,1,2,3,4,1,5,3,2,5,4,4,1,2,4,4,1,1,4,1,3,3,3,4,3,3,3,4,3,3,3,3,1,3,4,4,3,2,2,2,2,4,4,3,2,1,3,4,4,2,4,2,2,2,3,2,1,3
"Oslo",1996,2,6,1,4,2,1,NA,NA,2,NA,35.05,34.3,35.8,59.908798217773,68,-4,4,1,2,1,NA,4,4,4,1,8,3,6,6,1,NA,1,NA,1,NA,NA,2,1,NA,1,NA,NA,NA,NA,NA,NA,NA,NA,NA,NA,4,5,5,4,4,4,4,3,2,3,4,4,4,2,3,3,2,2,3,2,3,3,2,3,3,2,2,4,4,2,4,5,2,5,4,5,4,4,4,4,3,2,2,4,2,4,4,5,5,5,5,7,5,5,5,3,2,4,5,3,5,5,2,1,2,4,3,4,4,3,1,2,2,2,5,3,4,4,1,2,2,2,2,5,4,4,5,5,5,2,4,4,4,7,7,7,7,7,7,2,3,1,4,1,1,4,4,1,2,2,1,3,2,1,2,4,6,7,1,4,1,2,2,2,3,3,3,2,4,2,1,2,3,4,3,2,2,3,2,1,4,3,4,3,4,5,5,5,4,4,5,5,1,1,1,4,4,4,3,3,2,2,1,5,3,4,2,5,4,4,5,5,1,4,4,3,3,3,4
"Serbia",1996,2,3,1,5,2,1,4,0,2,NA,35.15,35.2,35.1,44.818603515625,65,8,6,1,2,1,NA,4,4,5,NA,5,3,3,3,2,1,2,8,1,NA,NA,3,1,NA,1,NA,NA,NA,NA,NA,NA,NA,NA,NA,NA,4,5,5,5,5,5,3,3,5,3,5,5,3,3,3,3,2,2,1,1,3,2,2,3,4,2,4,2,3,2,2,2,3,3,2,3,4,3,3,2,3,2,2,2,1,2,3,4,4,4,2,4,8,5,4,4,4,NA,2,2,2,2,2,4,2,4,NA,8,NA,2,2,2,NA,NA,NA,NA,NA,NA,2,6,4,NA,NA,5,5,5,5,5,4,4,5,5,2,3,3,3,3,2,2,3,3,1,2,3,1,2,2,1,2,2,2,2,1,2,2,3,3,4,1,3,1,3,3,3,3,4,2,2,3,3,3,4,2,2,3,3,1,3,4,4,3,5,5,5,5,5,1,1,3,1,1,1,2,2,1,2,3,3,3,2,4,4,4,3,4,3,3,4,3,1,4,3,4,3,4,2,3,2,4
"METU",1996,1,6,1,3,2,1,68,0,2,NA,35.2,34.6,35.8,39.911697387695,64,2,3,2,2,1,NA,4,4,4,4,5,1,3,3,1,NA,2,4,1,NA,NA,2,2,8,2,"ODTU GST","ODTU BKFT","ODTU BIYOGEN",NA,NA,8,5,4,NA,NA,1,5,4,2,4,4,2,2,3,4,4,4,4,3,4,3,2,2,1,2,3,2,3,5,4,3,2,1,1,1,1,2,1,1,1,1,5,2,2,1,3,1,1,1,1,2,4,7,4,4,7,7,5,7,7,5,3,7,5,2,5,1,6,1,6,1,1,4,2,5,7,2,2,2,1,1,1,1,3,2,4,1,1,5,5,5,4,5,1,1,2,2,1,5,4,4,3,3,3,3,4,2,2,4,4,4,4,2,1,3,2,3,2,3,2,3,2,2,2,1,1,1,4,2,5,4,1,1,3,4,2,5,5,3,5,5,5,5,5,3,3,5,3,4,4,5,5,5,5,5,5,5,1,1,1,2,1,4,2,2,2,4,3,4,4,5,4,4,4,5,5,5,4,4,5,5,3,3,4
"Oslo",1996,2,7,2,3,2,1,NA,NA,2,NA,35.35,34.6,36.1,59.916702270508,70,-5,4,1,2,1,NA,4,4,5,NA,5,1,4,3,2,1,2,8,1,NA,NA,1,2,8,2,"Politisk ungdomsorganisasjon","Kollokvie","Familie","N?re venner","Venner",6,3,3,2,4,2,2,4,5,5,4,3,4,4,3,4,3,4,4,4,4,3,4,4,4,4,4,4,4,4,3,4,2,2,2,2,4,4,2,4,4,4,4,4,4,4,2,2,2,2,2,4,4,4,4,4,4,4,4,4,4,4,4,4,4,4,4,4,6,4,4,4,4,4,4,4,4,4,4,4,4,4,4,4,4,4,4,4,4,5,4,5,5,4,2,5,5,6,7,6,7,7,7,7,3,3,1,2,3,3,3,2,3,3,2,2,2,2,3,2,5,6,7,4,3,4,4,2,4,3,4,2,2,2,2,4,4,4,2,4,4,2,4,4,2,2,3,4,4,4,4,4,3,4,4,3,4,3,2,3,2,2,3,4,2,2,4,2,4,3,4,4,2,4,4,4,4,4,2,4,4,4,4,3
"METU",1996,2,7,2,3,2,1,NA,NA,2,NA,35.35,34.5,36.2,39.911697387695,64,6,3,2,2,1,NA,4,4,5,NA,6,3,3,3,1,NA,2,8,1,NA,NA,1,2,8,2,"ODT? K?PR?",NA,NA,NA,NA,10,NA,NA,NA,NA,5,2,4,5,5,5,2,4,2,2,4,4,5,4,2,3,3,3,4,3,3,3,3,3,4,3,3,3,3,4,3,2,1,4,3,3,5,3,5,4,5,1,2,1,3,1,5,4,4,4,4,5,5,5,5,4,4,4,4,4,4,2,4,1,4,2,4,4,6,3,4,6,4,4,4,2,6,4,4,6,6,2,4,5,5,5,5,5,5,5,5,5,5,7,7,7,5,5,5,2,2,2,2,3,2,2,2,2,2,2,2,2,2,4,2,5,8,6,1,4,5,5,1,1,1,4,4,4,3,4,4,3,4,2,2,3,5,3,4,4,2,4,4,3,3,4,4,3,5,3,3,4,3,2,3,4,4,4,5,5,1,2,4,4,3,2,2,4,4,2,2,4,4,4,3,4,4,2,5
"Oxford",1996,1,4,2,4,2,1,1,0,2,NA,35.4,34.6,36.2,51.75,74,2.777777778,5,1,2,1,NA,4,4,5,NA,5,5,1,1,1,NA,2,6,1,NA,NA,1,1,NA,1,NA,NA,NA,NA,NA,NA,NA,NA,NA,NA,3,3,2,3,2,2,1,2,3,3,3,2,3,4,3,4,3,2,3,3,4,2,3,2,5,3,3,2,2,2,4,1,2,2,1,2,4,5,4,4,2,1,2,2,2,1,4,4,4,4,4,4,6,4,4,4,4,4,4,4,4,4,4,6,4,4,4,4,4,4,4,4,4,4,4,4,4,4,4,4,4,4,4,4,2,2,5,3,2,2,3,4,3,3,3,3,3,2,2,2,5,1,3,2,1,4,4,2,2,1,2,4,2,4,2,4,4,4,1,3,2,2,5,4,5,5,2,2,2,3,1,5,4,3,5,5,5,3,2,4,1,2,4,2,4,3,4,4,1,2,4,4,1,4,3,1,2,3,2,4,4,3,4,5,3,1,2,4,1,2,4,2,4,2,2,4,2,4,2
"Oxford",1996,1,4,2,3,2,1,0,0,2,NA,35.5,34.7,36.3,51.75,89,-1.666666667,5,1,2,1,NA,4,4,5,NA,2,2,3,2,1,NA,2,8,1,NA,NA,1,1,NA,2,"Oxford Latin Speaking Society","Oxford Latin Conversation Society","Plato Reading Group",NA,NA,2,4,1,NA,NA,2,3,3,5,5,5,3,4,5,3,4,2,4,5,2,3,2,2,2,2,3,2,4,1,5,3,3,3,2,1,4,3,1,1,1,1,2,3,2,2,2,1,2,2,1,1,2,4,4,4,4,4,1,4,4,4,4,2,4,4,1,4,4,4,4,4,4,4,4,4,4,4,4,4,4,4,4,4,4,4,4,4,4,3,3,4,5,4,3,2,3,3,7,7,6,6,5,3,3,2,3,1,3,2,2,2,2,2,2,1,2,2,4,3,2,3,3,2,1,3,3,1,3,5,4,2,1,2,1,2,2,4,4,2,4,5,2,2,1,3,2,2,4,5,4,2,3,3,2,3,3,4,3,4,3,2,1,2,2,5,2,2,2,4,2,1,4,3,3,1,1,3,4,2,2,2,2,2,2
"Poland",1996,2,7,1,5,2,1,0,0,1,6,35.5,35.6,35.4,52.233306884766,85,1,9,1,2,1,NA,4,2,5,1,6,6,3,3,1,NA,1,NA,2,1,1,1,1,NA,1,NA,NA,NA,NA,NA,NA,NA,NA,NA,NA,1,5,5,4,5,5,3,5,5,5,5,5,5,1,2,2,5,4,5,5,2,4,5,2,4,4,2,5,4,2,2,3,2,1,2,3,2,2,2,2,2,3,2,2,2,2,2,1,2,2,1,3,2,3,1,2,3,6,1,1,2,1,1,2,2,2,6,6,5,2,6,7,4,5,7,5,6,7,7,7,7,2,6,4,4,3,4,3,4,2,4,4,1,2,1,1,1,1,2,2,2,2,2,3,4,2,3,1,1,1,1,2,1,3,1,4,4,4,3,2,2,4,5,2,3,5,4,1,3,4,4,2,2,2,3,2,2,2,1,1,3,4,4,3,4,3,3,3,4,4,2,4,4,3,5,2,2,4,5,5,3,3,2,4,3,2,5,3,2,2,3,3,3,4,3,2,3,4,1
"Oslo",1996,1,7,1,5,2,1,NA,NA,2,NA,35.55,35.6,35.5,59.916702270508,58,-2,4,1,1,1,NA,4,4,4,2,8,5,7,7,1,NA,2,8,1,NA,NA,1,1,NA,2,"Klatring",".",".",".",".",3,0,0,0,0,2,2,5,4,3,3,1,3,1,5,3,4,4,2,2,2,1,2,2,2,3,2,2,1,4,3,1,1,4,2,3,4,1,2,1,3,4,4,3,3,1,1,1,1,1,1,3,4,1,1,1,7,1,4,2,1,1,3,1,2,1,2,1,3,1,2,1,6,1,1,2,1,1,1,3,3,1,2,1,1,1,1,2,5,5,5,5,5,4,2,4,3,3,6,2,4,2,2,4,1,1,1,2,1,1,1,1,4,1,1,2,3,5,5,5,2,2,1,1,1,1,1,4,2,5,5,4,1,2,2,1,4,2,1,2,3,3,4,1,3,3,2,4,2,5,4,4,5,3,4,2,1,1,2,2,2,2,5,3,4,1,4,3,4,3,2,3,4,2,5,3,3,4,4,2,3,2,4,1
"Serbia",1996,2,7,1,4,2,1,8,8,2,NA,35.55,35.5,35.6,44.818603515625,44,12,6,1,1,1,NA,4,4,4,2,5,4,5,5,2,8,2,6,1,NA,NA,5,1,NA,1,NA,NA,NA,NA,NA,NA,NA,NA,NA,NA,5,2,5,5,5,2,1,1,5,4,3,3,3,3,4,3,3,2,2,2,3,3,3,3,4,2,3,4,4,4,4,3,3,4,3,4,4,4,3,3,3,3,3,3,2,3,3,4,1,2,1,1,5,5,1,NA,1,4,8,2,1,2,4,1,1,1,NA,4,NA,1,2,1,3,3,NA,NA,NA,NA,1,4,4,NA,NA,5,5,5,5,5,4,3,4,4,5,4,4,2,3,3,3,4,4,4,2,4,4,4,4,4,4,4,1,4,1,4,1,3,4,4,2,6,6,6,3,4,4,3,2,2,4,4,2,4,3,4,2,4,3,3,4,4,4,5,5,4,5,5,1,1,2,4,4,3,4,2,1,2,2,4,5,2,2,3,2,4,4,4,3,5,5,5,5,5,2,4,3,5,2,4,4
"UCSB",1996,2,7,1,3,2,1,0,0,1,1,35.55555556,35.55555556,35.55555556,34.13519287,92,13.88888889,5,1,2,1,NA,4,4,5,NA,8,4,7,3,2,1,2,3,1,NA,NA,3,1,NA,2,"friends",NA,NA,NA,NA,7,NA,NA,NA,NA,3,3,3,3,3,3,3,3,3,3,3,3,3,3,3,3,3,3,3,3,3,3,3,3,3,3,3,3,3,3,3,3,3,3,3,3,3,3,3,3,3,3,3,3,3,3,3,4,4,4,4,4,4,4,4,4,4,4,4,4,4,4,4,4,4,4,4,4,4,4,4,4,4,4,4,4,4,4,4,4,4,4,4,3,3,3,3,3,3,3,3,3,7,4,4,4,4,4,4,3,3,3,3,3,3,3,3,3,3,3,3,3,3,3,3,1,1,4,5,5,5,5,3,3,3,3,3,3,3,3,3,3,3,3,3,3,3,3,3,3,3,3,3,3,3,3,3,3,3,3,3,3,3,3,3,3,3,3,3,3,3,3,3,3,3,3,3,3,3,3,3,3,3,3,3,3,3,3,3
"Serbia",1996,1,7,1,4,2,1,2,0,2,NA,35.6,35.5,35.7,44.818603515625,45,12,6,1,2,1,NA,4,4,4,1,3,2,3,1,2,1,2,8,1,NA,NA,1,1,NA,1,NA,NA,NA,NA,NA,NA,NA,NA,NA,NA,3,3,2,3,4,3,1,1,2,3,2,4,3,2,5,3,2,4,3,3,2,2,3,4,3,2,2,1,2,1,2,2,2,1,1,3,4,2,4,4,3,1,2,2,2,2,3,7,5,2,7,8,7,8,8,3,2,3,2,8,2,2,7,8,2,3,1,8,1,2,2,2,NA,5,3,4,3,5,2,6,6,1,NA,5,5,3,5,5,3,3,3,3,6,2,2,3,4,2,2,3,2,1,2,4,3,3,2,3,2,4,4,2,2,2,1,4,3,4,1,2,3,2,2,3,1,4,1,3,2,4,3,5,2,3,2,3,2,4,4,4,4,5,4,3,4,3,2,3,1,2,4,4,2,3,2,2,2,2,3,4,2,2,3,4,4,3,2,4,4,3,3,4,3,4,4,3,2,4,2
"Serbia",1996,2,7,2,3,2,1,0,0,2,NA,35.65,35.7,35.6,44.746704101562,83,4,6,1,2,1,NA,4,4,5,NA,1,NA,3,3,1,NA,2,8,1,NA,NA,1,1,NA,1,NA,NA,NA,NA,NA,NA,NA,NA,NA,NA,4,3,1,3,5,4,4,3,5,1,5,4,5,3,4,4,3,4,4,3,5,3,3,3,4,2,3,1,2,1,1,2,1,1,1,3,3,4,3,3,3,1,3,2,1,2,3,8,5,4,8,5,5,5,8,3,2,6,4,8,4,5,4,8,4,3,3,5,NA,8,3,2,NA,NA,6,NA,5,5,2,3,1,3,4,5,5,5,5,4,5,5,5,4,1,2,3,3,2,2,2,2,2,1,2,1,2,2,3,2,1,2,1,3,2,2,2,3,2,4,1,2,2,2,1,3,1,4,2,3,1,2,5,4,4,4,2,4,4,4,3,4,4,4,3,3,3,3,2,2,1,3,4,3,2,4,2,3,4,4,4,3,2,4,4,4,4,3,2,4,4,4,4,4,4,5,3,3,4,4,3
"Oslo",1996,1,6,1,3,2,1,2,0,2,NA,35.65,34.9,36.4,59.912704467773,69,-4,4,1,2,1,NA,4,4,5,NA,6,2,4,3,1,NA,2,6,1,NA,NA,1,1,NA,1,NA,NA,NA,NA,NA,NA,NA,NA,NA,NA,4,2,2,4,3,3,1,3,2,2,4,4,4,3,3,3,2,3,2,3,4,2,2,3,5,2,3,2,4,2,4,2,2,2,2,5,4,3,4,4,3,4,2,4,2,3,2,5,2,2,2,6,3,5,5,2,2,2,2,2,2,4,3,3,2,5,3,4,3,5,3,4,5,3,5,2,5,3,5,4,4,2,3,5,5,4,5,4,4,3,5,4,6,4,3,4,5,5,5,3,3,1,3,4,3,4,2,3,3,4,2,2,2,3,2,4,6,5,1,2,6,3,4,2,3,4,2,2,2,2,2,4,4,2,4,4,2,3,3,2,3,3,4,4,3,4,4,4,2,2,3,2,2,2,2,2,2,4,3,4,4,3,4,4,4,3,4,4,3,4,4,4,3,2,4,2,3,2,4
"METU",1996,2,6,2,3,2,1,1,0,2,NA,35.65,35.5,35.8,39.911697387695,70,3,3,2,2,1,NA,4,4,5,NA,8,5,4,4,1,NA,2,8,1,NA,NA,1,1,NA,1,NA,NA,NA,NA,NA,NA,NA,NA,NA,NA,2,5,4,5,5,4,2,2,4,2,4,3,4,5,5,4,3,3,3,3,4,4,4,3,5,3,5,3,3,2,2,4,5,2,2,2,5,3,4,5,4,2,2,2,2,2,4,6,5,6,6,6,6,5,6,6,4,7,4,4,1,5,5,6,2,2,4,6,6,5,4,2,6,7,2,4,6,2,6,5,5,2,4,5,5,5,5,5,5,5,5,5,6,7,7,7,6,5,5,3,4,3,4,3,4,4,3,2,4,2,1,3,2,3,3,5,8,6,3,6,2,2,2,2,4,5,3,3,4,2,4,5,4,1,3,4,4,4,2,3,1,5,4,4,4,4,3,4,5,4,4,5,2,2,2,3,2,4,2,2,2,4,3,3,4,2,2,5,2,2,3,4,3,4,4,3,3,3,5
"Oslo",1996,2,7,1,4,2,1,14,24,2,NA,35.7,35.9,35.5,59.912704467773,70,-2,4,1,2,1,NA,4,2,4,1,8,4,8,7,1,NA,2,5,3,8,1,1,1,NA,1,NA,NA,NA,NA,NA,NA,NA,NA,NA,NA,2,4,2,4,2,2,2,3,2,4,2,4,2,2,2,3,2,2,1,2,3,2,1,3,4,2,2,2,2,1,4,3,2,4,2,5,5,3,4,3,2,1,2,1,2,2,4,5,2,4,3,7,3,2,4,4,1,2,2,2,2,6,2,5,2,5,5,6,5,6,2,6,6,3,2,2,3,3,7,3,3,5,1,5,5,4,5,5,5,4,5,5,5,6,6,5,5,4,4,1,4,1,5,3,1,3,5,4,2,2,2,3,2,5,3,5,6,4,1,3,5,3,2,4,4,4,2,2,2,2,2,4,4,1,4,4,4,5,2,3,3,2,1,1,5,5,5,5,3,5,2,2,2,2,4,2,1,4,1,2,4,2,1,4,1,2,2,3,4,5,5,2,5,1,4,1,3,1,4
"Oslo",1996,1,6,2,3,2,1,NA,NA,2,NA,35.75,35.5,36,59.916702270508,70,-7,4,1,2,1,NA,2,2,5,NA,3,1,8,5,2,1,2,3,1,NA,NA,1,1,NA,1,NA,NA,NA,NA,NA,NA,NA,NA,NA,NA,2,2,3,2,2,4,1,3,2,2,3,3,2,4,3,4,3,3,3,3,4,3,3,3,4,3,4,2,3,3,4,3,2,3,2,4,4,4,3,4,2,2,3,2,2,4,2,4,4,3,4,6,5,5,5,4,3,3,3,3,5,5,3,6,3,5,3,5,3,3,2,5,3,3,3,3,3,3,4,4,4,3,3,4,4,3,5,4,4,2,4,4,5,6,5,5,5,5,5,4,4,3,4,3,4,4,4,3,4,2,2,2,3,2,2,4,3,4,2,2,2,2,2,4,4,4,3,2,2,3,4,4,2,2,4,3,3,4,2,3,2,3,4,2,4,3,4,4,4,4,3,4,2,3,3,3,2,2,2,4,2,2,2,4,3,3,4,4,3,4,4,4,3,2,3,3,2,3,2
"Oxford",1996,2,3,1,3,2,1,0,0,2,NA,35.75,35.1,36.4,51.75,74,2.777777778,5,1,2,1,NA,4,4,5,NA,3,2,5,5,1,NA,2,8,1,NA,NA,6,1,NA,1,NA,NA,NA,NA,NA,NA,NA,NA,NA,NA,3,4,4,2,2,2,4,2,2,3,3,3,4,3,3,3,2,2,2,3,4,2,3,2,4,2,3,4,4,2,4,4,2,2,4,4,3,4,4,4,4,2,2,4,2,2,4,5,5,3,5,5,4,6,3,5,4,4,3,2,1,2,4,6,2,4,1,3,2,2,2,2,1,2,1,2,2,1,2,3,2,1,2,4,3,4,4,3,4,2,4,4,4,5,4,4,4,4,4,2,3,1,2,4,1,4,2,2,2,2,4,4,2,3,3,2,3,3,2,3,1,1,2,4,2,5,4,4,4,3,3,4,2,2,3,4,4,2,2,3,3,3,4,4,5,5,5,5,3,4,4,4,2,3,3,1,1,4,2,3,2,3,3,2,4,4,1,2,4,4,4,4,2,4,3,5,3,2,4
"Tsinghua",1996,1,3,2,4,2,1,NA,NA,1,0,35.75,35.5,36,30.580093383789,72,14,7,3,2,1,0,4,4,5,0,8,1,5,4,1,1,2,3,1,1,1,3,2,1,1,"°àÎ¯»á","Ñ§Éú»á","ÀÏÏç»á",NA,NA,7,4,2,NA,NA,2,4,3,3,3,4,1,4,3,5,5,2,5,2,2,3,2,2,1,3,3,2,2,2,5,3,1,4,4,3,4,2,3,4,4,4,3,3,4,3,3,3,2,3,3,3,2,4,4,4,6,6,2,4,2,4,2,1,2,4,2,4,4,4,2,4,2,2,2,2,2,2,1,2,3,2,4,2,2,4,4,2,3,5,5,5,5,5,5,4,5,5,6,2,2,4,4,3,5,3,2,4,2,3,3,3,3,3,3,2,1,1,2,3,2,4,4,4,2,2,2,6,2,2,3,4,1,2,2,3,3,4,3,1,1,4,4,1,4,4,3,3,2,3,4,3,3,4,4,2,4,4,2,1,1,3,4,5,3,2,2,2,4,4,3,2,1,4,2,1,3,4,2,2,4,4,4,3,1
"Oxford",1996,1,7,1,4,2,1,1,0,2,NA,35.75,35.2,36.3,NA,74,2.777777778,5,1,2,1,NA,4,4,5,NA,5,3,8,8,1,NA,2,8,1,NA,NA,1,1,NA,1,NA,NA,NA,NA,NA,NA,NA,NA,NA,NA,2,3,1,2,1,3,3,4,1,2,5,3,3,4,3,2,3,2,2,1,2,2,2,3,4,1,1,5,5,3,5,4,4,5,1,5,5,5,5,5,5,5,3,5,5,4,5,7,7,7,7,7,7,5,7,5,7,4,7,7,1,4,7,7,6,1,3,4,1,2,1,1,6,6,3,6,2,4,1,7,4,3,5,5,5,5,5,5,5,5,5,5,6,5,3,5,6,6,5,1,1,1,1,1,1,1,3,1,3,1,1,4,2,3,3,3,4,2,2,2,2,3,2,4,4,4,1,5,5,2,2,5,4,1,3,5,5,3,5,1,1,3,4,3,2,5,4,4,5,4,5,5,1,1,1,1,4,3,2,3,2,4,3,2,4,2,1,5,4,4,4,2,2,4,1,2,2,1,1
"METU",1996,2,6,2,3,2,1,2,1,1,15,35.8,35.5,36.1,39.911697387695,70,3,3,2,2,1,NA,4,4,5,NA,4,1,7,7,1,NA,2,8,1,NA,NA,1,2,8,2,"ODT? Psikoloji Toplulu?u","Dergi 101",NA,NA,NA,7,7,NA,NA,NA,1,1,1,4,1,2,1,1,1,5,1,1,5,5,3,5,4,4,4,5,5,4,4,3,3,5,4,1,4,1,3,3,1,1,1,2,2,2,2,2,2,2,1,2,3,1,2,7,7,7,7,7,7,6,7,7,7,7,6,7,5,7,7,7,5,7,2,7,2,4,3,2,1,1,5,2,1,1,2,6,2,2,3,3,4,4,4,4,5,5,4,2,6,7,6,3,7,5,4,5,3,5,3,1,5,5,4,3,3,5,1,1,3,1,2,5,6,6,1,4,2,1,3,1,4,5,1,2,4,5,3,5,5,1,3,5,5,3,2,3,2,4,4,3,5,2,3,5,5,3,2,2,1,1,1,1,1,3,3,4,1,3,2,4,1,4,2,2,2,5,3,2,3,1,3,1,1,5,5
"METU",1996,2,5,2,4,2,1,5,0,1,18,35.8,35.2,36.4,39.911697387695,70,3,3,2,2,1,NA,4,4,5,NA,6,3,6,6,1,NA,2,5,1,NA,NA,1,1,NA,1,NA,NA,NA,NA,NA,NA,NA,NA,NA,NA,2,2,2,2,2,2,2,3,1,2,3,2,2,4,4,4,3,3,4,3,4,3,4,3,5,2,4,5,5,5,5,2,5,5,1,5,5,5,5,5,5,2,1,2,4,2,5,7,6,4,7,6,7,5,7,6,5,7,2,7,6,3,6,5,2,2,2,5,2,3,2,2,2,2,2,3,6,2,2,5,3,1,5,4,4,4,4,4,3,3,3,4,7,7,5,7,7,5,7,2,2,1,2,4,2,3,2,1,2,1,2,1,2,4,1,4,5,2,2,2,1,1,1,4,2,5,4,5,2,2,5,4,4,1,1,4,4,1,5,5,4,4,4,5,4,5,5,5,4,4,4,4,2,4,1,5,5,5,4,4,2,4,1,4,1,5,1,5,1,4,4,2,1,5,5,5,5,1,5
"Oxford",1996,1,5,2,2,2,1,2,0,2,NA,35.85,35.3,36.4,51.75,74,2.777777778,5,1,2,1,NA,2,2,5,NA,5,2,8,8,2,1,2,6,1,NA,NA,2,1,NA,1,NA,NA,NA,NA,NA,NA,NA,NA,NA,NA,4,2,2,2,2,4,1,2,2,3,3,3,4,2,2,4,2,3,2,3,3,2,2,4,5,2,3,5,5,4,4,5,5,5,2,4,2,2,3,3,2,5,4,4,3,3,4,7,7,7,6,6,5,7,7,7,5,7,6,7,4,5,5,6,3,6,3,3,6,5,3,3,3,5,5,2,3,2,3,2,2,2,4,5,4,4,4,4,4,4,4,4,6,5,6,6,5,5,5,5,4,4,2,2,2,2,2,4,2,2,1,4,1,4,2,5,6,5,5,3,6,6,2,3,4,4,2,3,2,4,5,5,2,1,3,5,5,5,4,3,3,4,5,3,4,4,5,5,5,3,5,4,2,2,2,4,2,4,4,5,4,3,5,4,5,3,2,4,5,5,4,4,3,5,4,4,4,1,1
"Oslo",1996,2,7,1,2,2,1,5,9,2,NA,35.895,35.61,36.18,59.949996948242,89,0,4,1,2,1,NA,4,4,4,1,5,4,6,5,1,NA,2,3,1,NA,NA,1,1,NA,1,NA,NA,NA,NA,NA,NA,NA,NA,NA,NA,3,3,4,4,4,5,2,3,3,4,3,3,2,3,3,3,2,2,3,2,4,2,3,4,3,3,4,4,5,3,5,1,2,5,1,5,4,4,4,4,4,2,4,4,2,3,4,5,5,5,5,7,5,2,3,5,3,5,5,5,2,6,5,5,1,4,4,5,2,5,2,3,4,2,4,3,5,2,3,3,4,1,3,5,5,5,5,5,5,3,5,5,4,6,6,5,6,5,5,2,3,1,3,1,2,2,3,3,2,2,4,2,2,5,3,4,6,6,2,5,5,3,2,3,2,4,2,4,4,3,3,5,4,2,3,4,4,2,4,4,2,1,4,5,3,4,4,5,4,3,2,2,1,1,1,4,3,4,3,1,3,2,4,2,5,4,1,4,4,4,3,4,4,4,3,4,4,1,4
"Kassel",1996,1,7,2,4,2,1,0,0,2,NA,35.9,36.1,35.7,51.316604614258,48,11,1,1,2,1,NA,4,2,5,NA,8,8,8,5,2,8,2,1,3,1,4,1,2,5,2,"Adventjugend Kassel",NA,NA,NA,NA,7,NA,NA,NA,NA,3,2,2,2,4,5,2,3,2,4,3,2,4,3,3,3,2,2,1,4,2,2,1,3,3,4,3,2,4,1,4,2,1,4,3,4,4,4,2,4,2,1,2,1,2,1,1,6,5,5,2,4,6,5,6,5,2,3,2,4,4,5,2,5,2,5,2,6,2,5,1,2,4,4,2,2,2,2,4,5,6,3,2,4,4,4,4,5,3,3,4,4,3,4,4,5,3,3,3,4,4,2,3,2,2,4,3,1,2,2,2,2,3,2,2,4,4,4,5,4,5,3,4,2,2,5,4,1,3,3,2,3,3,1,3,4,3,2,1,3,3,5,4,3,5,4,4,4,2,3,3,2,2,4,4,2,3,4,2,4,1,3,3,4,1,2,3,4,3,4,4,4,2,2,2,3,2,2,2
"METU",1996,2,7,2,2,2,1,4,0,2,NA,35.9,35.2,36.6,39.911697387695,70,3,3,2,2,1,NA,4,4,5,NA,4,2,7,7,1,NA,2,8,1,NA,NA,1,2,3,2,"K?pr¨¹ Grubu",NA,NA,NA,NA,2,NA,NA,NA,NA,4,3,3,5,4,5,2,1,2,3,3,4,4,3,3,5,3,2,4,4,3,4,3,3,4,3,3,4,4,2,4,4,2,3,3,3,4,4,4,4,4,2,2,2,2,3,4,6,4,4,6,6,6,5,6,6,4,6,5,5,4,7,6,5,2,2,3,5,6,6,5,5,6,4,2,2,3,3,6,4,4,2,4,4,4,3,4,4,4,4,4,4,3,6,6,6,6,5,4,3,4,4,4,3,4,3,3,3,2,3,2,2,2,4,2,4,7,5,6,6,3,1,2,2,4,4,2,4,2,2,4,5,3,1,3,4,3,3,2,4,2,5,4,5,5,4,3,4,4,3,4,3,2,4,2,3,3,4,4,2,2,4,4,3,4,4,2,4,3,2,2,4,4,5,4,3,3,4,2
"Serbia",1996,2,7,2,4,2,1,0,0,2,NA,35.9,35.4,36.4,44.818603515625,45,12,6,1,2,1,NA,4,4,5,NA,4,2,7,7,1,NA,2,8,1,NA,NA,1,2,8,2,"AIESEC",NA,NA,NA,NA,7,NA,NA,NA,NA,4,3,4,4,3,4,3,3,3,4,3,4,4,2,3,3,2,2,2,3,3,2,2,3,4,2,3,4,4,2,4,4,2,2,2,5,4,4,4,4,2,2,4,4,3,2,4,2,2,1,3,2,2,2,3,NA,1,3,2,2,1,5,2,3,1,2,1,5,1,1,1,4,4,NA,NA,NA,3,NA,3,6,5,NA,3,5,5,5,5,5,3,2,2,3,3,5,4,4,5,4,4,2,2,1,2,1,1,2,2,3,2,1,2,2,2,3,1,4,4,5,1,4,4,4,2,4,4,4,4,4,4,3,3,3,3,2,2,2,3,2,3,4,4,4,4,3,4,4,1,1,2,3,2,4,1,3,1,1,2,3,2,3,3,2,3,4,4,2,1,4,4,4,3,3,4,5,3,2,2,3,1
"Oxford",1996,2,7,1,4,2,1,18,0,2,NA,35.95,35.8,36.1,51.75,74,2.777777778,5,1,2,1,NA,4,4,5,NA,4,1,8,8,1,NA,2,8,1,NA,NA,5,1,NA,2,"socsoc",NA,NA,NA,NA,10,NA,NA,NA,NA,4,2,2,2,3,2,2,1,1,3,3,3,3,2,3,3,2,3,2,2,2,3,3,3,3,3,1,1,1,1,1,1,1,1,1,1,1,1,1,1,1,1,1,1,1,1,1,1,1,1,1,4,3,2,1,2,1,1,1,1,1,1,1,1,1,1,1,1,1,1,1,1,1,1,1,2,1,1,1,2,2,1,2,5,5,5,5,5,5,4,5,5,6,7,7,7,5,5,5,1,1,4,1,1,1,1,1,1,1,1,5,1,1,1,2,4,7,6,7,7,3,6,2,4,4,5,1,3,3,5,3,5,1,2,2,3,3,2,5,1,4,4,4,2,4,5,5,5,4,4,5,5,1,1,1,1,3,4,4,5,1,4,3,5,1,4,1,1,4,3,2,3,1,4,3,2,4,1,4
"METU",1996,2,3,2,3,2,1,2,0,2,NA,35.95,35.4,36.5,39.911697387695,69,6,3,2,2,1,NA,4,4,4,1,7,5,4,4,1,NA,2,8,1,NA,NA,3,1,NA,1,NA,NA,NA,NA,NA,NA,NA,NA,NA,NA,4,5,4,4,4,4,3,4,4,3,4,4,5,3,3,4,3,3,2,2,2,2,3,3,4,2,3,2,3,2,2,3,2,3,2,2,4,4,2,4,4,1,2,3,3,2,2,6,3,2,4,6,5,5,4,6,3,4,4,4,5,3,6,5,2,3,2,5,2,5,5,5,6,5,2,2,3,2,3,5,5,2,2,5,5,5,5,5,5,5,5,5,5,6,5,4,4,3,3,2,3,2,3,2,2,2,3,2,2,2,2,2,4,3,2,4,3,5,2,3,4,4,2,2,3,4,3,4,4,4,4,4,4,1,2,4,4,2,4,4,2,4,3,4,4,4,4,4,5,4,3,3,2,2,2,3,5,4,4,3,2,3,2,4,4,2,2,3,2,4,4,4,2,4,4,3,2,4,2
"Serbia",1996,2,1,1,4,2,1,16,16,1,3,35.95,36,35.9,44.818603515625,45,12,6,1,2,1,NA,4,4,5,NA,4,3,3,3,2,2,2,5,1,NA,NA,3,1,NA,1,NA,NA,NA,NA,NA,NA,NA,NA,NA,NA,5,4,5,5,2,4,5,4,4,5,4,4,5,1,3,2,4,2,1,2,2,2,2,2,4,2,2,2,3,2,2,2,1,4,2,4,3,2,2,2,2,1,1,2,1,4,2,8,5,8,8,7,2,5,8,5,1,4,5,8,2,1,8,1,2,3,1,7,1,2,2,1,7,6,NA,1,3,3,1,7,7,1,3,5,5,5,5,5,5,5,5,5,7,5,5,2,5,4,5,2,2,1,2,2,1,1,1,2,1,4,2,2,1,2,1,5,7,4,3,5,5,5,4,2,5,5,5,2,5,3,3,2,2,2,2,1,4,2,3,5,3,5,5,3,5,5,1,1,1,3,2,2,3,2,2,4,2,4,2,5,3,1,4,3,3,5,2,5,4,3,3,1,3,4,2,1,1,3,3
"Oslo",1996,2,7,2,3,2,1,2,8,1,NA,35.95,35.5,36.4,59.916702270508,87,-1,4,1,2,1,NA,4,4,5,NA,8,6,5,5,2,1,2,4,3,1,4,1,1,NA,1,NA,NA,NA,NA,NA,NA,NA,NA,NA,NA,2,2,1,3,3,2,1,1,2,3,2,2,3,3,3,3,2,4,2,3,4,2,3,3,4,3,3,4,4,3,5,3,3,4,3,5,4,3,4,3,4,2,2,4,4,5,4,4,4,4,4,4,5,4,6,4,4,5,4,4,2,6,4,6,4,4,4,7,5,5,5,5,4,4,4,4,4,4,4,4,4,4,4,4,3,2,4,3,4,2,4,3,3,3,3,2,4,4,4,2,5,1,4,2,1,3,4,2,3,2,3,4,2,4,4,3,2,2,1,1,1,1,2,4,3,4,1,1,4,3,2,5,4,2,2,2,2,3,3,4,1,1,4,4,3,3,3,3,2,4,3,3,3,4,3,2,5,2,3,1,4,3,5,4,3,3,4,2,4,4,4,4,4,3,2,2,1,1,1
"UCSB",1996,2,7,1,4,2,1,0,0,2,NA,35.97222222,35.16666667,36.77777778,34.4329071,64,6.111111111,5,1,2,1,NA,4,4,5,NA,3,3,8,8,2,3,2,8,1,NA,NA,8,1,NA,2,"N/A","N/A","N/A","N/A","N/A",0,0,0,0,0,4,4,3,4,2,4,2,4,4,4,4,3,4,1,2,2,3,2,2,2,1,2,2,1,4,2,2,2,4,2,4,2,2,4,2,4,4,2,2,4,1,2,2,2,2,2,2,2,2,1,5,5,3,2,2,2,1,3,1,5,2,2,2,5,1,1,1,2,2,1,1,1,2,2,2,2,2,1,1,3,5,1,2,4,4,4,4,4,4,2,4,4,5,6,5,5,6,5,5,2,3,1,2,1,1,4,2,2,1,1,2,2,2,2,2,5,7,5,2,2,4,6,2,4,4,4,3,4,3,3,4,4,2,2,4,4,3,2,2,4,4,4,2,2,4,5,5,4,3,3,4,4,1,2,2,3,5,4,4,2,1,5,3,4,4,5,2,4,5,4,4,4,1,4,4,4,4,2,4
"Oslo",1996,1,7,1,5,2,1,20,2,2,NA,36,35.9,36.1,59.912704467773,69,-4,4,1,5,1,NA,4,4,5,NA,2,2,6,6,1,NA,2,6,1,NA,NA,4,1,NA,2,"Kompiser","Medstudenter","Aktivitetsklubb","0","0",5,3,7,0,0,4,5,5,5,5,5,4,4,4,5,4,4,3,2,2,3,2,2,2,2,3,2,2,2,4,1,2,1,1,1,2,1,1,2,1,4,4,3,2,3,1,1,1,1,1,1,2,3,1,2,2,7,1,2,5,1,1,1,2,1,1,2,1,6,1,2,2,1,2,2,4,1,1,1,2,1,2,2,2,1,2,2,2,5,5,5,5,5,4,3,4,4,5,4,4,5,5,4,4,1,2,1,3,1,1,1,3,1,1,1,2,3,2,5,2,4,5,4,1,2,2,4,1,1,3,3,2,2,2,2,4,4,2,1,3,4,4,4,2,2,5,2,3,4,3,5,4,5,5,4,4,4,1,1,1,3,4,4,5,3,1,4,4,2,4,3,2,3,4,3,3,2,2,4,1,1,3,1,2
"Serbia",1996,2,7,1,3,2,1,1,0,2,NA,36,36,36,44.818603515625,53,6,6,1,2,1,NA,4,4,5,NA,7,5,7,7,1,NA,2,8,1,NA,NA,2,1,NA,1,NA,NA,NA,NA,NA,NA,NA,NA,NA,NA,5,4,4,4,4,4,3,3,4,3,2,3,2,2,3,3,2,2,2,3,3,3,2,4,5,1,3,1,4,1,2,1,2,1,1,2,4,4,4,4,4,1,2,1,1,1,4,1,1,1,1,4,2,1,1,1,1,1,1,1,1,1,1,2,1,2,4,8,NA,2,2,1,4,NA,NA,NA,NA,NA,2,7,4,NA,NA,5,5,5,5,5,4,3,5,4,5,4,5,4,4,4,5,4,3,1,3,2,2,5,2,2,3,2,2,3,1,2,2,4,6,5,2,5,5,5,2,2,2,5,4,3,4,2,2,2,2,2,3,2,3,2,4,4,5,4,4,3,4,5,1,1,1,1,3,3,2,3,2,3,3,4,4,4,2,3,3,4,4,2,2,5,4,3,3,4,2,3,4,3,2,4,3
"Serbia",1996,2,7,2,3,2,1,2,0,2,NA,36,36,36,44.818603515625,57,-1,6,1,2,1,NA,4,4,5,NA,8,7,8,8,2,1,2,8,3,1,8,5,2,8,2,"Udru?enje koje se bavi decom i srednjo?kolcima",NA,NA,NA,NA,5,NA,NA,NA,NA,3,5,4,4,4,5,5,3,3,3,4,4,4,2,2,2,2,2,1,2,2,2,1,3,4,2,2,3,2,1,3,1,1,2,2,4,4,3,4,4,5,3,2,2,1,2,4,1,1,2,1,8,4,3,2,1,2,4,2,2,2,1,2,2,3,2,NA,5,NA,2,2,2,3,NA,NA,NA,3,NA,1,5,4,NA,NA,5,5,4,5,5,4,3,4,5,6,5,6,4,5,5,6,2,3,2,4,1,3,2,3,3,3,2,3,4,2,4,2,3,4,4,2,4,4,4,3,3,2,4,2,3,4,5,2,4,2,4,4,3,2,2,5,4,4,4,4,4,3,3,1,1,1,3,2,3,2,4,2,3,2,4,2,4,3,2,2,5,3,4,3,5,4,3,3,4,2,4,3,2,3,3,4
"Oslo",1996,1,5,2,5,2,1,0,1,2,NA,36,36,36,59.808502197266,64,-2,4,1,2,1,NA,4,4,5,NA,4,4,4,3,1,NA,2,8,3,1,8,3,1,NA,2,"Idrettslag","Kollokvie","Seminar",NA,NA,10,4,14,NA,NA,2,2,4,4,3,3,4,5,3,4,4,3,2,5,4,4,2,2,2,2,3,4,1,1,4,1,2,2,2,2,3,3,2,2,2,4,4,3,3,4,4,2,1,2,2,3,2,4,2,2,3,2,5,1,2,2,4,6,5,1,4,5,3,6,1,1,4,4,4,3,2,3,4,3,3,2,1,4,2,2,4,1,4,5,5,5,5,5,5,2,4,4,3,4,3,5,4,3,2,1,3,3,3,2,1,2,1,1,1,1,2,1,1,1,1,4,2,2,1,1,3,2,2,3,1,5,5,3,3,4,2,2,2,1,2,1,1,3,4,2,2,3,3,2,3,4,5,3,4,3,3,2,3,2,3,1,4,4,4,2,2,2,3,3,4,2,1,1,4,4,4,4,1,5,4,3,4,4,1
"VCU",1996,2,7,1,3,2,1,6,0,2,NA,36,35.8,36.2,37.552200317383,64,10.55555556,5,1,2,1,NA,2,2,5,NA,2,1,8,8,1,NA,2,8,1,NA,NA,3,1,NA,2,"Virginia esports association","Marval rpg group",NA,NA,NA,4,5,NA,NA,NA,4,4,1,4,3,3,2,1,2,4,3,4,4,2,3,4,2,2,2,2,3,2,2,3,4,2,4,2,4,1,4,4,4,2,4,4,4,4,4,3,4,4,2,3,3,4,4,3,2,2,2,4,2,2,2,1,4,2,2,4,7,5,3,5,2,2,2,2,1,1,2,1,2,2,2,2,2,2,2,2,2,2,2,5,4,4,5,4,3,4,3,4,5,5,3,4,3,3,2,3,2,1,4,2,1,2,2,2,2,2,3,4,2,3,3,5,7,5,3,6,2,2,4,4,5,4,2,2,4,3,3,5,4,2,4,4,3,4,3,4,2,4,4,5,4,5,4,4,3,3,4,3,2,4,2,2,4,4,3,4,2,2,4,2,3,3,2,3,4,4,4,3,3,2,3,4,3,2,2
"METU",1996,2,6,2,3,2,1,NA,NA,1,0.5,36,35.8,36.2,39.911697387695,64,2,3,2,2,1,NA,4,2,5,NA,3,3,6,6,1,NA,2,8,1,NA,NA,1,1,NA,2,"biyogen",NA,NA,NA,NA,5,NA,NA,NA,NA,2,4,2,4,4,2,2,2,2,2,3,2,2,4,4,4,3,4,4,4,4,4,4,4,4,4,3,4,4,2,3,4,2,3,4,4,4,4,4,4,4,3,2,2,2,4,4,6,5,6,6,5,5,5,6,6,4,6,4,4,3,6,5,5,3,6,5,6,5,6,4,4,3,2,3,4,4,3,5,6,4,2,3,3,4,4,4,4,5,4,4,4,7,6,6,6,6,6,6,2,4,3,2,4,4,4,4,4,4,4,1,4,2,5,2,4,4,4,2,3,3,4,4,2,4,4,2,2,4,4,2,4,4,2,4,4,4,4,4,2,3,4,5,4,4,4,4,3,3,4,3,2,3,4,3,2,2,2,3,3,2,4,4,2,4,4,4,4,4,4,4,4,4,4,4,2,2,2,4
"SMU",1996,1,3,2,3,2,1,2,0,2,NA,36.02777778,36.05555556,36,1.2931060791016,71,26,5,1,2,1,NA,4,4,5,NA,3,2,6,2,1,NA,2,8,1,NA,NA,2,1,NA,1,NA,NA,NA,NA,NA,NA,NA,NA,NA,NA,4,3,5,5,4,2,1,4,4,4,4,3,4,2,3,2,2,2,2,2,2,2,2,3,4,2,2,4,4,2,4,4,4,4,2,4,5,2,2,4,4,2,2,2,4,2,4,4,4,4,4,4,4,4,4,4,4,4,4,4,4,4,4,4,4,4,4,2,4,4,4,4,4,4,4,4,4,4,4,4,4,4,4,4,4,4,4,4,2,2,4,3,3,5,4,5,3,4,4,2,2,2,2,2,2,2,2,3,2,2,2,2,2,2,2,3,2,5,1,1,1,1,3,3,4,2,3,4,2,3,2,4,3,3,4,4,4,2,2,4,3,3,2,2,3,1,3,4,4,4,4,4,3,3,2,2,4,4,4,2,2,2,4,4,2,4,2,2,4,3,3,4,4,4,3,4,3,4,3
"Kassel",1996,1,4,2,3,2,1,6,0,2,NA,36.04,35.08,37,51.316696166992,53,12,1,1,3,1,NA,4,4,2,1,5,4,4,3,1,NA,2,5,1,NA,NA,1,1,NA,1,NA,NA,NA,NA,NA,NA,NA,NA,NA,NA,3,2,2,4,2,3,2,2,1,3,2,2,3,4,3,4,3,2,3,3,4,4,3,3,5,4,3,2,3,1,2,2,1,1,2,3,3,3,4,4,2,1,1,2,1,2,2,3,2,2,2,2,5,4,5,3,5,4,2,3,2,3,3,4,2,4,3,3,4,4,2,3,2,6,3,3,3,3,2,6,2,2,2,4,3,4,4,2,1,1,3,3,5,5,5,5,5,4,4,2,4,1,3,2,2,4,2,3,3,1,2,3,2,3,2,3,5,3,4,2,3,4,4,4,2,4,3,2,2,4,4,2,3,2,2,3,2,3,4,2,2,4,4,4,3,4,3,4,2,4,4,3,2,3,2,2,4,3,3,2,2,2,3,3,4,3,5,4,5,4,5,4,2,4,3,2,2,3,2
"METU",1996,2,7,2,4,2,1,2,0,2,NA,36.05,35.2,36.9,39.911697387695,64,2,3,2,2,1,NA,4,4,5,NA,4,2,3,3,1,NA,2,8,1,NA,NA,5,1,NA,2,"odt¨¹ hokey",NA,NA,NA,NA,6,NA,NA,NA,NA,3,4,3,3,3,4,2,2,2,3,4,2,3,4,3,3,3,2,3,4,4,3,2,4,4,2,3,2,3,2,4,1,3,1,1,2,4,4,4,4,3,2,2,2,2,3,4,5,5,3,6,6,5,5,6,5,2,5,5,6,5,2,5,2,3,2,2,3,4,3,3,5,5,4,2,2,2,2,5,5,3,2,2,5,5,4,4,4,4,3,3,3,2,5,5,5,6,4,4,2,4,2,3,2,3,3,3,3,3,2,1,2,2,2,2,5,3,3,1,2,4,2,4,2,3,4,3,3,4,4,3,3,4,2,4,4,3,4,4,2,3,4,4,3,4,4,4,4,4,3,4,4,2,3,2,2,2,3,2,4,4,3,3,4,3,2,2,3,4,3,3,4,4,3,4,4,3,4,4
"SMU",1996,1,5,2,3,2,2,1,0,2,NA,36.05,36,36.1,1.2931060791016,70,27,5,1,2,1,NA,4,4,5,NA,3,3,4,2,1,NA,2,8,1,NA,NA,1,1,NA,1,NA,NA,NA,NA,NA,NA,NA,NA,NA,NA,2,3,4,4,3,4,4,3,1,4,5,4,3,3,3,3,3,3,3,3,3,3,3,3,3,3,3,3,2,2,2,3,2,2,3,2,4,3,3,3,3,2,1,3,3,3,3,4,4,4,4,4,4,4,4,4,4,4,4,4,4,4,4,4,4,4,4,4,4,4,4,4,4,4,4,4,4,4,4,4,4,4,4,4,4,4,4,3,3,2,3,3,3,3,2,1,2,5,4,3,3,3,3,3,3,3,3,3,3,3,3,3,3,3,3,4,5,4,3,3,3,3,3,4,4,4,3,2,2,2,2,2,2,2,2,2,3,3,3,4,3,4,3,5,3,5,5,5,5,3,3,3,3,3,3,2,2,2,3,3,3,3,3,3,3,3,3,4,4,4,4,4,4,4,4,3,3,3,3
"Serbia",1996,2,1,2,3,2,1,2,2,2,NA,36.05,35.5,36.6,44.818603515625,70,1,6,1,2,1,NA,4,4,5,NA,4,3,6,6,2,2,2,4,1,NA,NA,5,1,NA,1,NA,NA,NA,NA,NA,NA,NA,NA,NA,NA,5,5,2,5,3,3,5,5,2,4,2,4,5,3,3,4,1,2,1,1,5,2,1,4,4,1,3,2,2,3,3,3,2,3,2,2,3,4,4,4,5,4,2,3,2,4,5,2,2,2,8,5,7,4,8,7,1,NA,3,5,1,1,4,1,2,8,NA,8,5,2,8,2,NA,NA,NA,1,NA,NA,1,6,7,7,1,5,5,5,5,5,5,2,4,4,7,2,3,3,6,6,7,5,5,2,4,2,2,4,4,5,4,4,2,5,1,1,1,3,4,7,1,3,4,7,3,3,1,4,1,4,3,5,2,4,3,4,4,3,2,3,5,5,5,4,4,4,4,5,1,1,1,4,4,3,3,2,1,2,3,4,2,2,2,1,3,3,4,4,1,4,5,5,5,5,1,5,4,4,4,4,4
"METU",1996,2,6,1,4,2,1,0,0,2,NA,36.05,35.9,36.2,39.911697387695,64,2,3,2,2,1,NA,4,2,4,1,4,2,6,6,1,NA,2,4,1,NA,NA,1,1,NA,2,"BEST",NA,NA,NA,NA,20,NA,NA,NA,NA,3,4,1,3,2,4,3,2,1,2,3,3,4,3,3,3,2,2,2,2,3,3,2,4,4,4,2,3,4,4,4,3,4,4,2,4,4,4,3,4,4,2,2,3,3,4,2,4,4,6,5,5,4,2,6,3,4,4,2,2,2,3,5,4,2,6,6,6,2,6,3,5,3,2,5,5,5,3,3,5,6,2,4,4,4,3,2,4,3,2,3,2,4,5,6,4,4,4,5,4,4,3,4,4,2,4,4,4,4,2,2,4,3,4,3,3,3,3,3,2,3,1,2,2,3,4,2,3,4,3,3,4,4,2,4,4,4,3,4,5,2,4,3,4,3,3,4,3,3,2,3,3,2,2,4,3,2,2,2,3,4,3,4,4,4,3,2,4,2,4,3,4,4,2,3,4,3,2,4
"Serbia",1996,2,7,1,4,2,1,4,0,2,NA,36.1,36.1,36.1,44.818603515625,65,8,6,1,2,1,NA,4,4,4,1,2,1,5,5,1,NA,2,5,1,NA,NA,1,1,NA,1,NA,NA,NA,NA,NA,NA,NA,NA,NA,NA,5,2,4,3,4,4,4,4,5,3,3,4,4,3,3,5,2,2,2,3,3,2,3,4,5,1,3,1,1,1,1,3,1,1,4,1,1,2,4,1,1,1,1,1,1,1,1,4,4,2,3,8,5,1,8,6,2,6,2,2,4,2,1,8,2,2,NA,7,1,2,2,2,3,NA,3,NA,3,NA,3,6,6,NA,3,4,5,5,5,5,5,4,5,5,7,5,6,4,5,6,6,3,2,1,4,2,4,4,2,3,4,4,2,1,1,4,2,3,6,1,1,2,2,6,1,1,2,5,1,4,1,1,5,5,2,5,2,2,4,5,4,3,4,5,5,4,2,4,1,2,4,2,5,1,2,5,1,4,3,2,2,4,3,2,2,5,2,1,1,2,5,2,2,3,2,5,4,4,3,2,4
"Bamberg",1996,2,6,2,2,2,1,0,0,2,NA,36.1,35.9,36.3,49.888305664062,90,-1,1,1,3,1,NA,4,1,5,NA,5,1,6,4,1,NA,2,6,1,NA,NA,1,1,NA,1,NA,NA,NA,NA,NA,NA,NA,NA,NA,NA,3,3,2,5,4,4,1,1,3,3,2,2,5,3,2,5,4,3,3,2,4,4,3,3,5,2,3,4,4,3,3,3,2,4,3,2,4,4,2,4,2,1,2,2,4,1,2,4,3,3,4,2,5,3,4,3,3,5,4,3,2,4,4,4,1,2,2,7,2,6,1,1,4,5,2,2,5,3,2,6,7,3,3,5,4,4,3,2,3,2,4,2,3,6,4,6,2,4,2,2,3,1,2,5,2,4,1,1,2,2,1,1,2,1,1,5,5,4,2,3,2,4,5,5,4,4,1,3,3,2,4,5,4,1,5,4,3,3,1,4,2,4,5,3,5,5,5,3,3,2,4,2,2,2,2,2,1,5,1,4,3,3,2,5,2,2,3,3,3,2,3,3,2,1,5,3,3,5,4
"Kassel",1996,2,7,2,4,2,1,2,24,2,NA,36.1,35.8,36.4,51.287796020508,77,5,1,1,2,1,NA,4,4,5,NA,8,8,8,7,2,1,2,6,1,NA,NA,3,1,NA,2,"Karnevalsverein",NA,NA,NA,NA,6,NA,NA,NA,NA,4,4,4,4,4,4,5,5,4,5,5,3,4,1,3,3,3,2,2,2,2,2,1,4,4,1,2,4,4,3,4,2,1,2,3,5,5,4,4,4,4,2,2,2,1,1,4,4,4,4,2,4,4,4,5,3,5,4,2,4,2,2,5,2,2,3,2,5,3,3,2,2,2,2,2,4,3,3,3,5,6,3,5,4,5,4,5,4,2,4,4,4,6,6,6,7,5,5,6,2,2,1,2,1,2,4,2,2,2,2,1,2,1,3,2,4,6,5,4,3,2,3,1,1,3,4,2,2,1,1,4,5,3,1,1,3,3,1,3,4,2,4,4,2,3,4,2,4,3,2,4,3,1,2,1,3,1,3,4,2,2,4,2,4,2,1,4,2,5,2,1,3,3,2,2,2,3,4,2
"Kassel",1996,2,5,2,3,2,1,3,0,2,NA,36.1,36,36.2,53.36669921875,91,0,1,1,2,1,NA,4,4,5,NA,4,1,8,6,1,NA,2,6,1,NA,NA,3,1,NA,1,NA,NA,NA,NA,NA,NA,NA,NA,NA,NA,2,1,3,4,2,3,1,2,2,2,3,2,4,4,3,4,2,2,3,3,4,3,3,3,4,2,3,4,4,2,4,4,2,3,3,3,4,4,2,3,2,2,2,2,2,3,3,6,5,5,6,5,4,3,5,5,4,3,2,3,2,2,5,6,2,4,4,6,2,4,2,2,3,4,6,3,5,5,2,6,6,3,5,4,4,4,4,4,4,4,4,4,6,5,5,4,6,5,5,4,5,3,4,4,3,4,4,4,4,2,3,3,2,4,2,2,5,5,3,2,3,4,2,3,3,4,3,4,2,2,3,3,4,3,2,4,4,2,2,3,2,5,4,3,4,4,4,3,2,3,4,3,2,2,3,3,3,4,2,3,1,2,2,3,2,2,2,4,4,4,4,4,3,4,3,3,4,2,4
"Serbia",1996,2,7,1,4,2,1,1,0,2,NA,36.1,35.9,36.3,44,61,1,6,1,2,1,NA,4,4,4,4,6,3,5,5,1,NA,2,8,1,NA,NA,2,1,NA,1,NA,NA,NA,NA,NA,NA,NA,NA,NA,NA,3,3,3,5,5,4,3,3,4,4,4,5,2,3,4,3,4,3,3,3,4,3,4,4,3,2,4,3,3,3,3,4,2,4,5,4,4,4,4,4,5,3,3,3,3,3,4,1,1,1,2,4,1,1,1,1,1,1,1,1,1,2,1,5,1,1,NA,3,1,2,1,1,NA,1,1,1,NA,NA,1,5,4,1,1,5,5,5,5,5,5,5,5,5,4,4,5,4,5,5,5,4,2,1,4,4,1,4,2,2,4,4,2,3,3,3,2,4,4,5,1,3,4,5,4,4,4,3,2,2,4,4,2,5,4,4,3,3,5,5,4,5,5,5,5,3,5,5,1,1,4,4,5,2,4,1,1,2,5,4,4,2,1,4,2,4,3,4,2,4,4,5,3,4,1,3,5,3,3,2,5
"Poland",1996,2,7,1,3,2,1,12,2,2,NA,36.1,36.1,36.1,54.360794067383,85,0,9,1,1,1,NA,4,2,4,2,8,5,2,2,2,8,2,8,2,1,1,2,1,NA,1,NA,NA,NA,NA,NA,NA,NA,NA,NA,NA,3,3,3,2,5,5,1,2,1,2,3,5,5,2,4,2,4,4,4,4,2,4,3,2,5,4,4,4,5,2,4,2,4,3,4,4,5,4,4,4,4,3,2,2,2,2,4,5,5,1,2,3,7,6,4,3,1,2,1,2,4,3,7,6,1,1,6,6,2,1,2,6,3,3,1,1,3,1,5,5,3,2,3,5,5,4,4,5,5,5,5,5,5,3,5,3,3,2,6,5,5,3,5,3,4,4,2,5,4,5,2,2,1,4,2,3,3,5,5,4,6,1,2,2,1,4,3,2,2,3,5,2,4,1,1,4,2,1,2,2,2,4,3,2,4,4,4,4,5,2,4,5,1,1,2,1,1,4,2,4,2,3,4,4,5,4,3,1,4,5,5,4,2,4,5,4,4,5,4
"Oxford",1996,2,6,2,3,2,1,2,0,1,1,36.1,35.9,36.3,51.75,89,-1.666666667,5,1,2,1,NA,4,4,5,NA,6,3,8,8,1,NA,2,8,1,NA,NA,3,1,NA,1,NA,NA,NA,NA,NA,NA,NA,NA,NA,NA,2,3,4,5,1,2,1,2,4,3,2,5,3,3,4,5,4,3,1,3,4,3,3,2,4,2,4,4,4,2,4,5,4,5,5,5,5,4,5,4,3,3,4,3,3,4,5,5,6,6,5,4,3,5,7,3,3,6,4,4,2,1,4,7,4,5,7,5,5,6,5,6,7,7,4,4,5,3,6,5,6,5,4,4,5,3,3,4,2,2,3,3,7,4,5,5,5,5,4,3,3,1,2,4,1,2,4,4,1,4,1,2,3,5,4,4,5,1,3,2,3,2,1,4,4,4,1,3,3,2,4,5,5,1,5,5,4,4,4,4,2,1,4,3,4,2,2,3,4,5,3,3,3,4,3,2,4,4,4,1,4,4,4,4,3,2,2,3,4,2,2,4,5,4,2,4,4,2,2
"VCU",1996,1,2,2,3,2,2,3,3,1,0,36.11111111,35.55555556,36.66666667,37.553802490234,68,8.888888889,5,1,2,1,NA,4,1,5,NA,3,1,1,1,1,NA,1,NA,1,NA,NA,1,1,NA,1,NA,NA,NA,NA,NA,NA,NA,NA,NA,NA,3,3,3,3,3,3,3,3,3,3,3,3,3,3,3,3,3,3,3,3,3,3,3,3,3,3,3,4,3,4,2,1,3,3,1,2,2,1,2,2,3,3,1,2,1,3,3,4,4,4,4,4,4,4,4,4,4,4,4,4,4,4,4,4,4,4,4,4,4,4,4,4,4,4,4,4,4,4,4,4,4,4,4,3,4,4,3,2,2,3,4,4,4,4,4,3,6,5,1,2,2,3,5,3,2,3,5,3,3,2,2,1,2,2,4,1,1,4,1,1,1,1,3,3,2,1,1,3,2,3,3,3,2,2,3,2,1,4,3,3,3,3,2,3,4,4,3,3,4,3,3,4,1,1,3,2,3,4,2,3,1,2,2,4,5,4,5,2,4,3,2,3,3,4,1,2,2,3,4
"UCSB",1996,2,1,2,3,2,1,14,0,2,NA,36.11111111,35.61111111,36.61111111,34.4329071,63,6.666666667,5,1,2,1,NA,4,4,5,NA,3,1,2,2,1,NA,2,2,1,NA,NA,1,1,NA,1,NA,NA,NA,NA,NA,NA,NA,NA,NA,NA,3,4,1,1,2,2,1,3,1,1,1,2,5,2,4,4,4,4,2,4,3,4,4,5,4,1,5,2,4,2,4,2,1,2,4,2,5,2,4,4,3,1,2,1,2,2,3,1,1,1,1,1,1,1,1,1,1,1,1,1,1,1,1,1,1,1,7,7,7,7,1,1,7,7,7,7,7,7,1,7,7,7,2,4,5,2,4,5,4,3,4,3,1,4,2,2,2,2,2,3,3,3,5,1,1,4,1,5,3,1,2,1,5,5,5,2,2,1,1,2,1,2,4,5,5,1,1,1,5,4,2,5,5,1,5,5,3,5,2,5,2,1,4,4,2,2,2,4,4,1,1,1,2,2,1,1,1,5,4,3,4,4,5,1,2,1,4,3,3,1,1,1,5,4,1,1,1,1,4
"METU",1996,1,6,1,2,2,1,4,0,1,7,36.15,36.2,36.1,39.911697387695,52,3,3,2,2,1,NA,4,4,4,1,4,3,8,7,1,NA,2,8,1,NA,NA,1,2,6,2,"AEGEE","BKFT","C?SST",NA,NA,25,4,3,NA,NA,3,1,1,2,1,4,3,1,1,3,2,1,1,4,3,2,4,2,2,4,4,4,2,4,5,5,3,1,1,2,1,2,1,1,1,3,5,2,4,3,4,1,1,1,1,1,2,6,1,1,4,5,6,3,2,3,2,6,1,3,2,1,1,7,1,2,1,1,1,1,1,1,1,1,1,1,1,1,1,1,1,2,1,3,3,3,5,4,1,1,2,1,3,2,3,3,3,2,2,2,2,3,3,4,4,4,3,2,4,2,1,2,1,1,1,4,5,3,2,3,4,4,4,2,4,5,1,2,3,5,2,5,5,2,4,5,4,4,2,5,4,4,5,5,3,4,5,4,2,3,4,4,2,4,2,2,2,5,3,4,3,3,2,5,4,5,3,3,4,5,5,5,2,5,2,5,2,4,2
"Serbia",1996,2,7,1,4,2,1,4,0,2,NA,36.15,36.3,36,44.818603515625,45,12,6,1,2,1,NA,4,4,5,NA,2,2,3,3,2,6,2,8,1,NA,NA,6,1,NA,1,NA,NA,NA,NA,NA,NA,NA,NA,NA,NA,3,3,3,4,3,3,2,3,1,3,2,1,3,4,4,5,3,2,3,3,4,3,3,4,5,2,4,2,2,2,2,3,2,2,2,2,4,3,3,3,3,2,2,2,2,3,3,5,4,2,5,8,2,8,4,5,4,3,4,2,4,2,8,5,2,4,NA,2,NA,2,2,2,NA,NA,NA,NA,3,NA,2,6,6,NA,NA,3,3,4,3,3,3,3,3,3,6,4,4,4,4,3,3,4,4,4,4,3,3,4,4,2,3,4,2,2,2,3,2,5,7,6,4,6,8,7,2,4,2,4,1,2,2,2,2,4,4,3,3,3,1,3,4,5,4,4,3,3,4,3,1,3,1,3,4,4,2,3,2,2,3,4,4,3,2,3,3,4,3,4,2,4,5,4,4,4,3,5,2,4,3,3,3
"Oslo",1996,2,5,2,2,2,1,NA,NA,2,NA,36.15,35.9,36.4,59.932098388672,63,-4,4,1,2,1,NA,4,4,5,NA,2,2,7,5,1,NA,2,7,3,1,8,1,1,NA,1,NA,NA,NA,NA,NA,NA,NA,NA,NA,NA,2,2,2,2,2,4,1,2,3,2,2,2,3,4,4,4,2,3,4,3,4,4,3,4,5,3,4,2,2,2,2,3,1,2,2,4,3,3,3,2,2,2,3,3,2,3,3,6,6,5,7,6,6,2,6,6,4,2,5,6,6,6,5,7,4,3,3,5,3,3,5,3,5,5,4,4,4,4,3,4,4,3,4,4,3,4,4,5,5,3,5,5,6,6,6,6,5,5,5,4,4,2,3,3,4,4,4,2,4,4,2,2,2,3,2,3,3,3,1,1,2,1,1,4,2,4,2,4,2,3,4,4,4,1,2,4,4,3,4,4,2,3,4,4,4,4,4,3,3,3,3,4,2,3,2,3,2,5,4,2,3,2,3,3,4,2,2,3,4,3,3,3,2,2,3,2,3,2,3
"Oslo",1996,2,7,2,4,2,1,0,0,2,NA,36.15,36,36.3,59.916702270508,87,1,4,1,2,1,NA,2,2,5,NA,6,2,8,7,1,NA,2,8,1,NA,NA,6,2,1,2,"Kollektivet","Seminar","Seminar","Seminar","Dans",5,6,4,3,5,3,3,4,3,2,4,3,4,2,4,4,4,5,2,3,2,2,1,1,2,2,3,1,3,5,1,2,2,2,3,2,2,2,2,3,3,4,4,4,4,4,2,2,2,2,1,4,6,4,2,7,6,5,4,5,5,2,5,5,4,6,3,5,5,1,6,1,5,2,1,1,3,2,2,1,1,2,1,3,2,2,1,3,4,5,4,5,4,3,3,4,3,5,4,5,5,5,5,5,2,3,2,1,2,2,2,2,1,2,2,1,2,1,1,1,5,8,7,7,5,6,5,1,2,2,4,3,5,3,2,5,2,3,1,3,3,4,2,4,4,4,4,4,4,5,5,5,5,3,5,4,4,1,1,1,4,5,5,5,3,2,3,2,5,3,4,1,4,3,5,5,5,1,4,5,4,5,1,4
"METU",1996,1,5,1,4,2,1,11,0,2,NA,36.15,36,36.3,39.911697387695,58,7,3,2,2,1,NA,4,4,4,4,5,5,8,8,1,NA,2,8,1,NA,NA,1,1,NA,2,"hokey tak?m?","capueira toplulu?u",NA,NA,NA,7,7,NA,NA,NA,1,4,4,3,3,3,3,3,3,4,4,4,3,2,3,3,2,2,2,2,2,2,3,3,4,2,2,1,2,1,4,4,5,4,1,4,5,3,5,2,5,2,2,1,2,3,5,6,4,7,7,6,7,7,5,3,6,3,7,5,4,5,7,2,2,6,3,2,3,6,6,3,4,3,3,3,6,5,4,3,3,2,5,3,4,3,5,5,3,3,4,4,7,5,5,5,6,6,5,3,3,3,3,5,4,4,2,2,5,2,2,4,2,4,2,4,5,7,1,2,3,4,4,2,4,4,2,4,5,5,4,5,4,4,4,5,5,4,1,5,4,4,5,4,5,4,4,3,4,4,4,5,3,2,3,2,4,4,3,5,3,2,2,4,3,3,1,4,2,4,4,5,2,3,4,5,3,1,4
"METU",1996,1,6,1,4,2,1,1,0,2,NA,36.15,36.2,36.1,39.911697387695,60,9,3,2,2,1,NA,4,4,4,1,2,1,3,3,1,NA,2,6,1,NA,NA,1,1,NA,1,NA,NA,NA,NA,NA,NA,NA,NA,NA,NA,4,2,2,3,2,3,2,4,2,2,2,2,4,3,4,4,3,3,3,3,3,3,4,3,4,4,3,4,4,2,3,4,4,2,3,3,4,4,4,4,4,2,1,1,2,2,4,6,5,3,6,5,5,4,5,6,6,3,2,6,2,6,5,5,2,4,2,2,3,6,2,2,2,2,2,2,2,2,3,3,3,2,3,4,3,4,3,3,3,3,3,3,4,5,5,5,4,4,4,4,4,4,4,4,3,4,3,2,4,2,2,3,2,3,2,5,7,5,2,3,3,4,4,1,5,3,1,2,4,4,1,5,4,4,5,4,2,5,2,4,2,4,4,4,3,4,4,4,2,3,4,3,3,3,4,2,4,2,4,3,2,3,3,4,3,4,2,4,4,4,4,4,3,4,3,4,2,3,4
"Poland",1996,2,7,1,4,2,1,18,2,2,NA,36.15,36.1,36.2,50.13330078125,65,NA,9,1,2,1,NA,4,4,4,4,3,3,4,3,2,1,2,8,2,1,1,1,1,NA,1,NA,NA,NA,NA,NA,NA,NA,NA,NA,NA,3,3,4,4,2,5,3,2,2,3,4,4,4,3,3,3,3,4,3,3,2,4,4,3,5,4,2,4,4,4,4,4,3,3,3,4,4,4,4,4,4,2,3,1,2,2,4,1,1,1,4,4,6,4,1,2,1,7,2,3,3,2,7,5,1,2,1,3,1,2,1,2,1,1,1,3,2,1,2,3,3,1,2,3,2,2,4,3,1,1,2,2,6,3,4,3,4,4,5,2,2,2,2,3,2,3,3,2,2,2,2,2,1,2,2,4,5,7,6,6,4,2,1,4,2,5,4,4,3,4,3,3,2,2,1,4,3,2,2,2,3,4,4,3,5,5,4,5,1,3,4,1,5,5,1,2,3,4,3,2,2,2,3,4,4,3,3,3,5,4,4,4,4,4,3,4,4,2,4
"Oxford",1996,2,1,2,4,2,1,NA,NA,2,NA,36.15,36,36.3,51.75,89,-1.666666667,5,1,2,1,NA,4,4,5,NA,3,2,8,8,1,NA,2,8,1,NA,NA,6,1,NA,2,"University Friends","Business Social","Lecturers/ Advisors","Friends from home","Neighbors",20,15,5,9,6,2,2,4,2,2,1,3,2,2,4,5,3,1,1,2,1,2,2,2,1,1,2,1,2,4,2,1,3,4,5,4,1,3,5,5,4,4,4,2,2,3,2,2,2,4,2,4,2,1,4,1,4,1,2,7,1,4,2,1,2,1,1,2,6,4,7,1,6,7,7,7,7,7,7,6,6,7,7,7,6,7,7,7,5,2,4,5,2,1,5,1,3,6,7,5,5,6,6,5,1,1,1,1,4,1,2,1,4,2,1,2,4,3,5,5,2,2,2,2,2,2,2,2,4,2,4,2,5,4,5,5,4,1,2,1,1,5,1,5,1,4,2,3,2,5,2,4,4,1,5,2,2,2,5,3,1,2,4,2,4,5,2,2,4,2,1,1,1,4,1,1,3,5,5,1,4,3,2,4
"Poland",1996,2,7,2,3,2,1,0,1,1,NA,36.15,36.2,36.1,54.360794067383,65,1,9,1,2,1,NA,4,4,4,4,5,5,6,6,1,NA,2,8,2,1,1,1,1,NA,1,NA,NA,NA,NA,NA,NA,NA,NA,NA,NA,4,2,5,4,3,5,2,3,3,3,5,3,3,2,3,4,4,3,3,3,2,4,4,4,4,5,4,4,4,4,4,4,4,3,3,5,5,4,4,5,5,3,3,3,5,3,4,6,6,6,6,6,6,5,3,6,5,2,6,6,5,6,6,5,3,4,2,6,2,4,3,3,2,2,2,2,2,2,4,5,6,2,2,4,4,4,3,5,4,3,5,5,7,6,6,6,7,7,6,2,2,2,2,3,4,2,2,1,2,2,4,2,1,1,2,5,7,7,7,6,8,8,1,3,1,4,4,5,2,3,4,4,2,1,1,3,1,2,5,4,4,4,4,4,4,3,3,4,4,4,4,4,2,3,2,2,3,4,2,4,2,3,4,4,3,2,1,2,5,4,4,4,2,4,4,4,4,5,3
"Serbia",1996,2,7,2,3,2,1,2,0,2,NA,36.2,35.9,36.5,44.818603515625,55,-2,6,1,2,1,NA,4,4,5,NA,2,2,4,3,1,NA,1,NA,1,NA,NA,3,1,NA,1,NA,NA,NA,NA,NA,NA,NA,NA,NA,NA,4,2,2,4,4,5,2,2,3,2,3,3,3,4,4,3,3,3,3,3,3,4,3,4,4,2,3,2,2,2,2,3,2,2,4,4,4,4,4,4,4,3,2,2,2,3,4,4,2,2,5,4,5,1,5,3,3,3,4,3,2,5,4,4,4,8,4,8,5,4,5,5,5,5,3,4,6,5,3,7,6,4,4,3,3,4,3,3,3,3,2,4,6,6,5,2,7,4,5,4,4,1,4,2,3,4,4,2,3,2,2,3,2,3,2,3,3,4,2,2,4,4,2,1,1,4,3,5,3,2,5,4,2,3,2,3,4,2,4,4,4,4,3,4,2,3,2,2,3,2,2,4,2,4,2,3,4,4,4,2,2,3,3,2,4,2,2,4,4,3,2,4,4,4,3,4,3,4,2
"Serbia",1996,2,7,2,4,2,1,0,0,2,NA,36.2,36.2,36.2,44.818603515625,40,14,6,1,2,1,NA,4,2,5,NA,2,2,6,6,1,NA,2,8,1,NA,NA,2,1,NA,1,NA,NA,NA,NA,NA,NA,NA,NA,NA,NA,3,3,2,4,3,3,2,2,3,2,2,2,3,3,3,4,3,3,4,3,4,3,3,4,4,3,4,3,3,2,3,4,2,2,3,3,4,2,4,4,3,2,2,3,2,2,3,2,2,2,2,2,4,4,2,NA,4,NA,2,2,2,5,4,5,3,2,NA,4,NA,2,2,2,4,NA,3,NA,6,3,2,6,6,3,5,3,3,3,4,4,2,2,2,2,6,5,5,5,6,6,6,4,4,2,4,4,3,4,3,4,3,4,2,2,2,2,2,1,3,5,1,3,3,3,2,2,2,4,4,4,4,3,3,1,3,2,2,3,4,3,3,4,4,4,3,3,3,3,2,2,2,2,2,3,2,4,3,2,4,4,4,3,2,3,4,3,4,3,2,4,4,3,3,3,4,4,3,5,3,3,2
"METU",1996,1,4,1,4,2,1,22,0,1,5,36.2,36.2,36.2,39.911697387695,72,8,3,2,2,1,NA,4,4,5,NA,8,5,8,8,1,NA,2,8,1,NA,NA,1,1,NA,1,NA,NA,NA,NA,NA,NA,NA,NA,NA,NA,3,3,3,3,2,5,4,2,2,4,3,2,4,1,2,2,3,3,2,2,2,2,2,3,3,2,1,3,3,4,4,2,2,2,1,4,4,4,4,4,4,4,3,3,2,4,4,2,1,1,2,4,2,2,2,2,1,3,2,2,2,2,5,3,1,1,2,2,2,2,2,3,2,2,2,3,2,2,3,2,2,3,2,5,5,5,5,5,5,4,3,3,6,5,5,5,5,4,4,2,2,1,2,3,2,3,2,3,2,2,3,3,4,3,2,3,3,3,1,2,4,4,2,2,3,5,4,3,2,2,2,4,4,1,2,3,2,3,4,4,4,4,3,4,3,4,4,4,4,3,4,4,2,2,1,1,4,4,4,3,2,4,3,4,4,4,2,4,2,4,3,4,3,3,4,3,3,3,4
"Serbia",1996,2,6,2,3,2,1,0,0,2,NA,36.2,36.2,36.2,44.818603515625,65,8,6,1,2,1,NA,4,4,5,NA,6,4,7,6,1,NA,2,8,1,NA,NA,2,2,5,2,"studentska organizacija",NA,NA,NA,NA,2,NA,NA,NA,NA,5,3,3,4,4,4,2,2,4,4,4,4,4,3,4,4,3,3,2,3,4,3,3,4,4,2,4,4,2,3,4,3,3,2,2,4,4,4,3,4,2,2,2,2,2,2,3,4,4,3,5,8,8,2,5,4,4,4,5,4,2,5,5,2,2,4,3,8,3,3,4,3,4,3,3,3,3,3,2,3,6,6,3,4,4,3,4,4,4,4,4,3,6,5,5,5,5,5,5,4,3,2,3,4,2,3,2,2,4,3,2,3,2,2,2,4,5,4,1,4,2,4,2,4,3,3,1,4,3,2,4,4,2,2,4,3,3,2,4,4,3,3,3,3,4,4,2,2,1,3,3,3,2,3,3,4,4,4,4,3,2,2,3,4,3,2,1,4,4,2,3,2,4,4,2,2,3,3,2
"Serbia",1996,2,7,2,3,2,1,0,0,2,NA,36.2,36.3,36.1,44.818603515625,65,8,6,1,2,1,NA,4,2,5,NA,2,2,5,5,1,NA,2,8,1,NA,NA,1,1,NA,1,NA,NA,NA,NA,NA,NA,NA,NA,NA,NA,3,4,4,5,4,2,3,3,4,3,3,5,4,4,3,4,3,3,3,3,4,3,3,2,4,2,3,4,4,3,4,2,3,4,2,4,3,4,3,4,3,4,4,4,2,4,3,3,3,4,2,2,5,2,3,4,2,6,2,4,4,2,4,8,2,4,NA,4,NA,3,2,2,4,NA,3,NA,NA,NA,2,4,4,3,4,5,5,5,5,5,5,5,5,5,7,4,5,5,6,6,6,2,1,1,3,3,1,1,2,3,1,2,2,2,2,2,2,4,6,5,2,3,3,4,3,3,2,2,3,3,3,3,4,4,4,4,3,2,3,3,3,4,4,4,4,3,3,4,2,2,2,3,4,4,2,4,2,3,3,3,4,2,2,2,2,2,3,2,2,4,4,4,3,4,1,4,4,3,3,3,2
"METU",1996,2,6,1,4,2,1,0,0,1,2,36.2,36,36.4,39.911697387695,64,6,3,2,1,1,NA,4,2,4,1,3,1,2,1,1,NA,2,4,1,NA,NA,1,1,NA,1,NA,NA,NA,NA,NA,NA,NA,NA,NA,NA,5,4,2,2,1,4,1,5,1,1,4,2,5,3,3,4,2,3,2,3,1,3,2,4,4,4,4,4,5,2,4,4,3,4,2,4,3,4,4,4,3,1,1,1,1,3,2,6,7,6,6,6,7,6,5,7,5,7,1,1,2,3,7,5,3,5,2,5,2,2,2,2,3,1,2,2,2,2,2,5,3,1,3,5,4,5,4,4,4,4,5,5,3,6,6,6,5,4,4,2,5,4,2,4,4,4,5,5,3,2,1,1,3,2,1,5,8,5,3,5,3,3,4,1,5,4,1,4,4,5,3,5,5,2,5,5,3,5,4,1,2,3,3,4,3,2,2,5,4,3,5,5,1,1,1,1,5,5,4,3,1,3,5,4,4,4,2,2,2,5,2,2,2,5,4,2,2,1,5
"Serbia",1996,2,7,2,4,2,1,10,0,2,NA,36.2,36.2,36.2,43.580001831055,61,1,6,1,2,1,NA,4,4,5,NA,4,3,8,8,1,NA,2,8,1,NA,NA,1,1,NA,1,NA,NA,NA,NA,NA,NA,NA,NA,NA,NA,4,2,1,4,3,3,2,3,2,2,3,3,4,2,4,4,3,3,2,3,3,3,3,4,4,2,4,4,4,4,4,5,4,4,5,5,5,4,4,3,4,2,4,4,1,2,5,3,4,2,5,8,5,3,8,NA,2,5,2,3,2,5,3,8,2,2,NA,8,NA,2,2,2,6,4,NA,NA,3,NA,2,6,6,3,3,5,5,5,5,5,5,5,5,5,5,5,5,5,5,5,5,4,4,2,4,4,2,4,4,4,3,4,2,2,2,2,2,5,6,3,2,4,4,4,2,4,2,4,2,4,2,2,4,5,4,4,2,3,4,3,4,4,4,4,4,2,4,4,2,1,2,3,4,4,2,3,2,4,4,4,5,1,2,4,3,4,4,2,2,5,5,4,4,4,2,4,4,4,4,1,2
"Kassel",1996,2,7,1,4,2,1,0,0,2,NA,36.25,36,36.5,51.287796020508,71,4,1,1,2,1,NA,4,1,4,1,2,2,5,3,1,NA,2,8,1,NA,NA,1,1,NA,1,NA,NA,NA,NA,NA,NA,NA,NA,NA,NA,4,5,5,4,4,5,5,4,4,5,5,4,5,2,2,2,2,1,3,1,1,1,1,2,4,1,1,2,4,1,1,1,1,1,4,1,1,1,1,1,1,1,1,1,1,1,1,4,4,2,2,2,2,2,2,2,6,6,3,5,4,4,2,5,1,5,3,6,4,5,4,5,3,5,2,1,2,3,3,6,6,4,3,3,1,4,2,1,3,2,2,2,3,1,2,1,1,1,2,1,2,1,2,1,1,1,3,2,2,1,2,2,2,3,2,4,4,4,2,2,1,2,3,5,3,3,1,3,4,4,2,5,4,5,3,4,4,3,4,4,2,4,4,5,5,4,5,4,2,2,2,2,2,4,2,1,1,5,2,5,4,1,1,1,2,1,4,2,5,2,2,2,2,2,2,4,4,1,3
"Oxford",1996,1,7,2,3,2,1,12,0,2,NA,36.25,36.1,36.4,51.75,86,0,5,1,2,1,NA,4,4,5,NA,1,NA,5,3,1,NA,2,8,1,NA,NA,1,1,NA,1,NA,NA,NA,NA,NA,NA,NA,NA,NA,NA,3,2,1,4,4,4,1,1,2,3,2,3,2,1,2,2,2,3,3,3,3,2,3,2,4,4,1,1,4,1,4,2,1,2,2,2,2,1,3,3,2,2,2,2,3,1,2,3,4,2,3,4,4,3,6,2,4,1,1,1,1,2,3,4,1,7,6,4,6,7,7,6,6,6,5,4,7,5,5,5,5,6,4,5,4,5,5,5,4,2,4,3,5,3,2,4,4,4,4,1,5,1,4,2,3,2,5,5,3,1,2,4,4,5,5,3,3,3,2,2,2,1,4,4,4,5,1,2,1,2,4,5,1,5,4,5,2,4,3,4,3,1,5,3,2,3,2,4,3,3,2,2,4,3,2,1,1,4,2,1,4,4,2,4,3,1,2,3,2,1,1,2,5,4,2,3,3,1,2
"Serbia",1996,2,1,1,5,2,1,3,0,2,NA,36.25,36,36.5,44.818603515625,44,12,6,1,2,1,NA,4,2,4,1,5,5,4,3,1,NA,2,8,1,NA,NA,2,1,NA,2,"ksp",NA,NA,NA,NA,3,NA,NA,NA,NA,3,3,3,4,3,4,4,2,3,3,3,4,3,3,3,3,3,3,3,2,3,3,2,3,4,1,3,1,3,1,5,3,2,1,1,3,4,3,3,1,3,1,3,1,1,1,3,4,4,4,5,7,1,2,5,NA,1,NA,4,4,1,1,8,1,2,4,NA,8,1,4,4,2,6,4,4,NA,4,4,4,7,7,NA,4,5,4,4,5,5,4,3,3,4,5,3,6,4,4,3,4,2,2,1,2,3,2,4,1,1,1,1,3,2,2,3,2,5,6,5,3,4,8,5,2,3,1,4,2,4,4,3,3,3,2,4,5,3,3,2,5,5,5,4,3,4,3,3,1,1,1,3,2,2,3,3,3,3,3,4,3,2,2,3,3,4,2,3,1,4,4,2,2,4,3,5,3,5,3,3,3
"Serbia",1996,2,4,2,2,2,1,0,0,2,NA,36.25,36,36.5,44.818603515625,56,6,6,1,2,1,NA,4,4,5,NA,4,4,4,5,2,1,2,8,3,1,5,6,2,8,2,"KSP","PDS","posao",NA,NA,10,3,4,NA,NA,3,1,1,4,3,4,3,1,2,1,2,3,2,2,2,3,3,2,2,3,3,2,3,4,2,2,4,2,3,2,2,3,3,2,3,3,2,3,3,4,3,3,2,3,4,4,3,4,3,7,4,3,5,3,4,NA,5,3,5,4,4,5,5,4,4,7,3,1,5,5,3,5,4,4,4,3,4,3,5,7,5,5,4,4,4,4,4,5,4,1,4,4,6,6,5,5,6,5,5,4,3,2,3,4,3,3,4,4,4,2,4,3,2,2,2,4,5,4,2,2,5,5,2,2,4,5,1,1,1,1,1,5,4,3,4,4,4,4,4,4,4,3,3,4,4,2,2,2,2,4,4,2,3,3,2,2,2,4,3,4,3,3,3,4,4,2,2,2,3,2,3,4,4,3,3,3,2,3,4
"Serbia",1996,1,4,1,3,2,1,12,7,2,NA,36.25,36,36.5,44.818603515625,75,4,6,1,2,3,6,4,4,5,NA,4,3,4,4,2,1,1,NA,1,NA,NA,4,1,NA,1,NA,NA,NA,NA,NA,NA,NA,NA,NA,NA,3,2,2,2,2,3,3,4,3,3,3,3,3,4,3,4,2,3,3,3,2,2,3,3,3,3,4,4,2,3,2,3,3,3,3,4,3,4,3,3,2,2,4,3,3,4,2,4,5,5,8,5,5,5,5,NA,2,4,2,5,3,8,4,7,2,5,5,5,3,5,5,8,4,3,NA,3,5,3,3,4,4,NA,3,5,4,4,4,4,4,2,1,4,5,4,4,4,4,4,4,1,3,2,2,3,4,5,3,5,4,2,1,4,2,3,3,5,6,4,4,4,4,5,4,4,4,4,4,4,4,4,4,3,3,3,4,4,3,4,4,4,4,4,4,4,4,3,3,3,3,2,3,3,3,3,4,4,3,4,3,3,4,4,3,3,4,3,4,3,3,3,3,3,3,4,2,2,3,3,4
"Tsinghua",1996,2,7,2,3,2,1,10,5,2,0,36.25,36.2,36.3,30.580093383789,78,17,7,3,2,1,0,4,4,5,0,8,3,5,3,1,1,2,5,1,1,1,1,2,1,2,NA,NA,NA,NA,NA,0,0,0,0,0,4,3,3,4,3,4,2,3,2,3,3,2,2,2,2,2,4,3,2,3,2,2,4,3,2,2,2,2,3,3,4,2,3,4,4,4,3,3,3,3,3,3,3,3,3,3,3,4,5,5,6,5,2,1,5,3,1,4,5,5,2,5,2,3,2,6,3,6,7,1,7,5,3,4,5,4,7,2,3,5,4,4,6,5,5,5,5,5,5,5,5,5,5,2,4,5,5,5,5,3,4,3,4,4,3,4,3,4,4,4,2,4,1,2,1,3,3,5,4,4,4,4,2,4,4,4,1,1,1,1,2,5,4,2,2,4,2,2,4,4,2,1,2,5,5,1,2,5,5,2,4,4,2,2,2,3,4,3,5,2,2,4,4,4,4,2,4,4,3,3,2,4,2,3,4,4,4,4,3
"METU",1996,2,7,2,4,2,1,NA,NA,2,NA,36.25,36.2,36.3,39.911697387695,69,6,3,2,2,1,NA,4,4,5,NA,7,3,8,5,1,NA,2,5,1,NA,NA,1,1,NA,1,NA,NA,NA,NA,NA,NA,NA,NA,NA,NA,3,4,3,4,3,4,3,2,2,3,4,3,3,3,3,3,3,2,3,2,2,3,2,3,3,3,2,4,4,3,4,4,4,2,2,4,4,4,4,4,5,4,4,3,4,4,4,5,2,3,6,6,4,3,4,3,3,3,3,3,2,2,6,3,1,3,2,3,3,5,4,5,3,4,2,2,6,2,5,3,3,2,4,4,4,4,4,5,4,3,3,3,7,4,4,4,5,4,4,3,3,2,3,2,3,4,3,2,2,2,3,2,2,2,2,5,7,6,4,6,6,5,3,3,3,4,3,3,2,3,4,4,3,2,2,4,4,3,4,4,3,4,3,3,3,3,4,4,4,4,5,4,2,2,2,3,5,3,3,2,3,4,3,4,3,3,2,4,3,4,3,5,3,3,3,4,3,2,4
"METU",1996,2,5,1,4,2,1,1,0,2,NA,36.25,35.4,37.1,39.911697387695,64,2,3,2,2,1,NA,4,4,5,NA,7,5,8,7,1,NA,2,8,1,NA,NA,6,1,NA,1,NA,NA,NA,NA,NA,NA,NA,NA,NA,NA,5,5,3,5,2,4,1,3,4,4,4,3,5,3,3,4,3,2,2,2,3,2,2,3,4,1,3,4,4,4,5,4,5,5,5,5,5,5,5,5,5,5,4,5,2,5,5,6,4,5,2,5,6,2,6,5,6,5,4,2,3,6,6,5,2,2,6,3,2,5,5,5,2,2,6,2,5,3,3,2,2,2,3,5,5,5,5,5,5,5,5,5,4,3,5,4,3,3,3,2,4,2,3,3,3,4,4,5,4,2,2,3,2,2,2,5,6,7,2,6,5,6,1,4,1,3,5,4,5,3,5,2,2,1,1,1,5,1,3,5,3,4,4,2,4,5,5,2,5,4,2,4,5,1,5,4,4,5,5,1,1,5,5,3,5,5,2,5,5,5,5,5,3,3,5,2,5,1,5
"Serbia",1996,2,7,2,3,2,1,0,0,2,NA,36.255,36.12,36.39,44.818603515625,75,4,6,1,2,1,NA,4,4,5,NA,2,2,4,4,1,NA,2,4,1,NA,NA,2,1,NA,1,NA,NA,NA,NA,NA,NA,NA,NA,NA,NA,1,2,1,5,2,1,1,1,1,1,1,1,2,5,3,5,3,4,5,5,5,5,4,4,4,3,4,4,5,2,4,5,5,5,3,5,5,4,5,4,3,3,4,4,2,4,3,8,5,7,8,8,8,5,7,5,5,6,4,5,8,8,8,8,5,3,4,8,NA,3,1,4,3,5,5,3,5,3,1,7,7,1,5,5,5,5,5,5,5,5,5,5,6,7,5,4,7,7,7,4,3,2,2,3,3,4,2,2,4,2,3,4,2,3,3,2,2,5,3,4,1,1,3,3,1,5,4,4,4,4,3,2,4,3,2,2,3,2,3,4,3,4,4,3,4,4,1,1,3,3,3,4,2,5,2,3,4,3,3,2,4,2,5,2,5,4,1,5,5,4,4,3,2,4,4,3,4,2,4
"Serbia",1996,2,2,2,3,2,1,0,0,2,NA,36.3,36.8,35.8,44.818603515625,65,8,6,1,2,1,NA,4,4,5,NA,6,1,5,3,2,1,2,8,3,1,6,6,1,NA,1,NA,NA,NA,NA,NA,NA,NA,NA,NA,NA,4,3,2,5,5,5,3,3,5,3,5,5,5,3,4,5,2,2,4,4,3,3,4,2,5,2,4,1,1,1,1,1,1,1,1,1,1,1,1,1,1,1,1,1,1,1,1,1,2,1,5,4,4,1,1,7,3,4,1,8,1,8,4,3,1,1,3,5,5,3,3,2,3,3,1,3,1,1,5,5,3,5,4,5,4,4,4,4,4,2,4,3,7,5,4,6,5,5,6,4,4,1,2,1,1,2,5,1,4,1,1,1,2,1,2,5,5,5,6,3,6,2,1,2,4,4,1,4,1,1,4,4,2,4,1,1,5,5,4,2,2,3,3,3,4,4,1,1,4,4,1,2,4,4,1,4,1,3,3,3,1,3,2,1,1,1,1,3,4,1,1,1,5,3,1,1,3,1,4
"Kassel",1996,2,5,1,4,2,1,2,0,2,NA,36.3,36.1,36.5,51.316696166992,62,7,1,1,2,1,NA,4,4,4,4,4,3,4,3,1,NA,2,8,1,NA,NA,1,1,NA,1,NA,NA,NA,NA,NA,NA,NA,NA,NA,NA,4,3,4,4,3,2,3,2,2,4,4,3,3,2,3,3,2,2,3,2,2,2,2,2,4,2,2,2,2,2,2,2,2,2,2,2,4,2,2,2,2,2,2,2,2,2,2,3,2,2,3,2,3,4,2,3,1,2,2,2,2,3,2,4,2,3,2,4,1,2,3,1,1,1,2,2,4,5,1,4,4,2,3,5,5,5,5,5,5,2,5,5,3,2,3,3,3,2,2,4,4,2,4,4,4,4,4,2,3,4,3,3,2,3,2,4,6,5,4,4,2,4,3,2,2,5,4,4,2,3,2,4,2,1,2,4,4,2,2,3,2,4,3,4,4,4,4,3,3,3,3,3,2,2,2,1,1,4,3,2,3,3,3,4,3,4,2,5,4,5,5,4,2,4,3,3,3,3,2
"Kassel",1996,2,3,2,3,2,1,12,0,2,NA,36.3,36.1,36.5,51.316696166992,62,1,1,1,2,1,NA,4,4,5,NA,5,1,6,5,1,NA,2,8,1,NA,NA,3,1,NA,2,"Gesellschaftsspiele","Pen'n'Paper",NA,NA,NA,7,6,NA,NA,NA,4,3,3,4,3,3,3,4,3,4,3,3,4,3,3,3,1,2,3,2,3,2,2,3,4,2,3,1,2,2,2,2,1,4,3,3,4,2,2,4,2,1,1,1,1,2,2,6,4,3,6,4,6,2,5,2,6,6,2,2,5,6,3,2,2,3,2,5,2,2,2,2,1,2,1,2,1,2,2,3,6,1,3,4,5,4,4,5,4,2,5,4,6,5,6,4,5,4,5,3,4,2,2,2,3,4,2,2,2,2,4,3,1,3,2,5,6,6,4,3,5,6,3,4,2,5,4,2,4,5,1,3,4,2,2,4,2,2,5,5,4,5,4,3,5,5,4,3,4,4,5,5,3,2,3,2,1,4,2,4,3,3,2,4,3,4,2,4,4,4,5,5,3,5,4,4,3,2,5
"METU",1996,1,6,1,4,2,1,0,NA,1,6,36.3,36.4,36.2,39.911697387695,64,6,3,2,2,1,NA,4,4,4,1,5,2,8,4,2,1,2,3,1,NA,NA,1,1,NA,1,NA,NA,NA,NA,NA,NA,NA,NA,NA,NA,3,4,3,4,3,2,2,1,3,3,4,3,4,3,3,3,3,3,2,3,4,3,3,4,4,3,2,3,3,4,3,3,2,3,2,3,4,4,3,3,4,3,3,2,2,3,4,3,3,2,6,3,5,5,2,2,2,4,2,2,3,4,5,5,2,2,2,2,2,2,2,2,2,2,2,1,3,2,3,2,2,2,2,5,5,5,5,5,4,4,4,5,5,5,5,5,5,5,5,2,2,2,2,2,2,3,3,2,2,2,2,3,3,2,1,5,6,4,2,1,2,4,2,2,4,4,3,3,2,2,2,3,4,1,3,4,2,4,2,3,3,4,4,3,4,3,3,4,4,4,4,4,4,4,2,2,2,2,4,4,3,3,3,4,3,4,2,4,3,4,4,4,2,4,4,3,4,2,2
"Oxford",1996,2,6,1,4,2,1,4,0,2,NA,36.3,36.2,36.4,51.75,74,2.777777778,5,1,2,1,NA,4,4,4,4,7,5,8,5,1,NA,2,8,1,NA,NA,5,1,NA,1,NA,NA,NA,NA,NA,NA,NA,NA,NA,NA,3,3,2,4,4,4,2,2,3,1,3,2,4,2,3,4,3,3,2,3,3,1,2,3,4,3,3,2,4,3,4,2,1,3,4,4,5,5,5,2,3,2,2,2,4,1,4,4,3,1,4,2,2,3,2,3,1,3,2,1,2,3,1,5,1,1,1,1,1,1,1,7,1,1,1,1,1,1,2,1,1,1,1,5,5,4,4,5,4,4,5,4,6,6,5,5,5,5,5,3,1,1,1,2,1,3,1,2,2,3,1,2,1,2,2,5,7,4,1,5,6,7,2,4,3,5,4,2,4,3,3,4,4,2,4,4,4,3,2,4,4,4,4,2,4,5,4,4,4,4,5,5,1,2,1,2,4,4,4,3,2,2,3,4,3,3,2,5,4,5,4,4,2,4,4,4,4,2,5
"Kassel",1996,2,7,2,3,2,1,6,0,2,NA,36.3,36.4,36.2,49.887496948242,76,1,1,1,2,1,NA,4,4,5,NA,8,2,8,5,2,1,2,1,1,NA,NA,1,2,4,1,NA,NA,NA,NA,NA,NA,NA,NA,NA,NA,3,3,4,4,3,3,4,4,3,5,4,3,4,3,3,3,2,2,2,3,2,3,3,3,5,2,3,2,5,4,4,2,1,3,3,4,4,4,2,3,3,2,3,4,3,2,2,4,4,5,5,5,5,3,4,5,4,3,4,3,3,5,4,5,4,4,4,5,4,4,3,5,4,4,3,4,4,4,4,4,6,4,4,5,5,5,5,3,4,3,5,5,3,6,6,6,7,5,5,3,2,1,2,2,1,3,2,3,2,3,2,1,2,3,2,5,6,4,2,3,3,5,3,3,3,3,3,2,2,3,3,4,4,2,2,3,3,2,1,1,3,4,4,3,3,5,5,3,3,3,4,3,3,3,3,2,3,3,3,3,2,3,3,3,3,3,2,4,4,4,3,3,3,3,3,4,3,2,2
"Tsinghua",1996,1,7,1,2,2,1,6,0,2,0,36.3,36,36.6,30.580093383789,74,16,7,3,3,1,0,4,2,4,1,2,2,2,2,1,1,2,3,3,2,2,2,2,1,1,"ÐÄÀíÎÀÉúÐ­»á","ÇàÄêÖ¾Ô¸ÕßÐ­»á","ÇàÄê´«Ã½ÖÐÐÄ","Ó¢Óï¹ã²¥Ì¨",NA,1,2,4,1,NA,3,4,2,3,3,3,1,2,1,2,3,2,2,2,2,1,3,3,2,4,2,4,3,2,4,2,2,4,4,2,4,2,2,4,4,4,4,2,4,4,2,2,2,2,2,2,4,6,6,6,5,6,2,7,2,6,2,5,2,5,2,6,2,2,2,2,6,2,2,4,2,2,2,2,6,6,6,2,2,2,2,2,2,4,2,4,4,4,4,4,3,4,4,2,4,7,7,6,7,2,2,2,2,2,2,2,2,4,2,3,4,4,2,2,2,2,2,3,2,2,3,1,2,4,5,5,2,2,2,2,4,4,4,1,4,4,2,4,4,4,4,2,4,5,3,4,2,4,3,4,2,2,2,2,2,2,2,2,3,2,2,2,2,4,4,2,3,4,2,2,2,2,4,2,2,2,2,1,3
"Kassel",1996,2,2,1,4,2,1,2,0,2,NA,36.3,36.3,36.3,51.316696166992,62,1,1,1,2,1,NA,4,4,4,2,4,3,5,5,2,1,2,8,1,NA,NA,3,1,NA,2,"Sportfreunde",NA,NA,NA,NA,2,NA,NA,NA,NA,3,3,5,4,4,4,3,4,3,4,4,4,4,2,3,3,3,2,3,2,2,2,2,3,4,2,3,4,3,3,4,2,2,4,4,4,4,4,4,4,3,3,3,2,3,2,3,4,1,1,1,2,2,1,1,2,1,1,3,1,1,1,1,1,1,1,2,2,1,1,1,1,2,2,1,2,1,2,3,7,4,1,2,5,5,5,5,4,4,3,5,5,5,4,5,4,4,4,5,2,1,1,2,1,1,1,2,3,1,2,2,1,2,2,2,5,5,7,5,3,6,6,2,3,1,4,3,3,3,3,4,4,2,2,3,4,4,2,3,4,3,4,2,4,4,5,5,4,4,3,4,4,1,1,2,2,3,5,5,3,2,3,3,3,4,4,2,3,3,5,4,4,1,4,5,4,4,2,4
"Serbia",1996,2,6,2,4,2,1,25,0,2,NA,36.3,36.2,36.4,44.818603515625,56,6,6,1,2,1,NA,4,4,5,NA,6,6,4,3,1,NA,2,8,1,NA,NA,1,2,8,2,"aiesec",NA,NA,NA,NA,25,NA,NA,NA,NA,5,3,3,5,5,4,4,4,4,4,4,4,3,2,4,3,2,2,2,2,3,3,3,4,5,2,3,5,4,2,5,4,2,2,2,5,5,5,4,4,4,2,4,3,1,3,5,2,2,2,3,8,2,2,3,3,2,NA,2,4,1,1,8,2,1,8,3,8,NA,8,4,1,5,6,NA,NA,7,5,1,7,7,6,5,5,5,5,5,5,5,3,4,4,3,6,5,3,4,4,5,3,4,1,4,2,3,4,2,4,2,1,2,1,2,3,2,5,4,5,2,4,4,4,2,4,2,4,2,2,2,2,2,3,3,3,3,2,3,2,4,1,1,4,4,3,4,4,2,2,1,3,4,4,2,3,2,3,1,4,2,2,3,3,3,4,2,1,2,4,4,1,1,1,2,2,3,4,3,2,2
"Serbia",1996,2,7,1,3,2,1,5,0,2,NA,36.3,36.2,36.4,44.818603515625,45,12,6,1,2,1,NA,4,4,5,NA,6,4,5,4,2,1,2,3,1,NA,NA,2,1,NA,1,NA,NA,NA,NA,NA,NA,NA,NA,NA,NA,2,5,2,5,4,4,1,1,5,2,4,3,3,3,5,4,2,2,3,2,4,2,2,4,5,3,4,4,4,4,3,4,4,4,2,5,4,4,2,4,3,2,2,4,2,2,4,5,2,2,3,1,1,1,1,5,1,6,2,1,1,2,2,2,1,7,1,2,1,1,7,1,1,1,1,1,6,1,1,NA,3,NA,NA,5,4,3,3,5,4,4,4,4,2,2,3,2,2,2,3,4,3,4,4,4,4,5,2,3,3,2,2,4,1,3,2,5,3,4,1,3,2,7,2,4,1,4,1,4,2,4,4,4,5,1,2,2,3,4,4,4,4,4,4,4,5,5,2,2,4,4,5,3,2,4,1,2,2,4,4,5,2,3,2,4,4,4,2,4,4,4,4,2,4,5,2,2,2,2,4
"Kassel",1996,2,4,2,4,2,1,1,0,2,NA,36.3,36.1,36.5,51.316696166992,62,7,1,1,2,1,NA,3,3,5,NA,8,5,7,6,2,1,2,8,1,NA,NA,1,1,NA,1,NA,NA,NA,NA,NA,NA,NA,NA,NA,NA,2,3,3,5,3,4,2,4,2,4,3,2,4,3,2,3,3,2,3,3,2,3,2,2,5,2,3,4,5,4,5,4,2,3,4,3,4,4,4,4,4,2,3,2,2,2,4,5,4,5,2,6,6,3,6,3,2,5,3,4,2,5,3,5,1,6,2,6,2,5,3,2,4,6,3,4,3,4,2,7,2,3,4,5,5,4,5,5,4,2,5,5,3,3,3,3,4,2,5,2,5,1,3,2,4,4,4,2,2,3,2,2,2,4,2,3,3,4,3,3,2,2,2,4,1,5,2,2,3,2,3,5,4,2,2,4,4,1,4,3,2,5,2,4,3,4,4,3,3,4,4,2,1,1,2,1,4,4,4,1,2,4,3,3,4,2,2,5,4,3,4,4,1,4,4,3,3,1,2
"METU",1996,2,7,2,2,2,1,NA,NA,2,NA,36.3,36.2,36.4,39.911697387695,64,6,3,2,2,1,NA,4,4,5,NA,4,8,4,8,2,8,2,8,1,NA,NA,3,1,NA,1,NA,NA,NA,NA,NA,NA,NA,NA,NA,NA,4,3,3,4,4,2,2,3,2,2,5,3,5,4,4,4,3,3,3,3,4,3,3,5,5,3,4,4,5,4,5,5,4,4,3,4,4,5,4,5,4,2,4,4,3,4,4,6,2,2,6,7,7,6,7,6,2,6,2,2,7,2,4,7,2,2,2,7,7,7,7,1,6,2,2,1,2,2,7,2,6,1,1,5,5,5,4,5,5,5,5,5,6,7,6,7,7,6,5,5,5,2,5,2,4,5,5,1,5,2,1,1,2,5,1,5,8,6,6,6,6,5,1,1,4,5,2,5,2,2,5,5,4,4,2,5,5,2,5,3,5,5,2,2,5,5,5,5,5,5,5,5,4,2,2,5,2,5,4,2,2,5,2,4,5,2,2,5,5,4,2,5,1,4,5,5,4,1,1
"Serbia",1996,2,3,1,2,2,1,5,8,2,NA,36.3,36.3,36.3,44.818603515625,50,8,6,1,2,1,NA,4,4,5,NA,5,4,5,4,1,NA,2,3,3,6,3,2,2,5,2,"vrtic","porodia","komsije",NA,NA,2,3,1,NA,NA,5,5,5,5,4,5,5,4,5,4,5,5,5,1,4,4,1,1,1,1,4,2,1,3,5,2,4,5,5,5,4,5,5,5,4,5,4,4,4,4,4,4,4,5,4,5,4,2,2,1,1,5,7,4,1,NA,1,NA,1,1,1,2,1,2,1,1,NA,3,1,1,1,1,NA,NA,3,NA,4,3,1,5,5,1,NA,5,4,4,4,4,4,4,4,4,3,2,3,2,1,2,2,1,2,1,2,2,1,1,2,1,2,1,4,3,2,1,2,2,4,6,4,3,4,4,4,1,2,4,2,4,4,3,4,4,4,4,4,2,2,2,5,5,5,5,4,4,3,4,1,1,2,3,4,4,2,2,1,1,3,3,4,2,3,2,3,3,4,4,4,4,4,4,4,4,5,4,4,4,1,4,4
"Serbia",1996,2,7,2,4,2,1,NA,NA,2,NA,36.35,36.1,36.6,44.779205322266,96,4,6,1,2,1,NA,4,4,5,NA,4,4,4,6,1,NA,2,7,1,NA,NA,3,1,NA,1,NA,NA,NA,NA,NA,NA,NA,NA,NA,NA,3,5,3,5,5,5,3,2,2,5,3,4,3,2,3,3,2,2,2,3,2,3,2,3,3,2,2,2,2,2,2,1,2,4,2,5,5,4,3,4,2,2,2,2,2,2,4,4,2,2,2,2,4,2,2,3,2,NA,2,2,2,5,2,5,2,4,NA,8,NA,2,2,2,NA,NA,3,NA,3,NA,2,6,6,NA,3,5,5,4,5,5,5,5,4,5,3,4,4,3,3,3,2,4,4,2,4,4,2,3,2,2,3,3,4,3,2,2,2,4,3,4,2,6,5,4,3,3,4,4,2,2,4,3,3,4,4,2,3,3,2,2,4,4,4,4,4,3,3,3,2,2,4,4,4,3,4,2,2,3,4,4,4,2,3,4,3,4,3,4,2,4,2,3,2,2,2,4,3,3,2,1,4
"Serbia",1996,2,7,1,5,2,1,0,0,2,NA,36.35,36.1,36.6,44.779205322266,65,10,6,1,2,1,NA,4,4,4,2,4,3,6,6,2,2,2,8,1,NA,NA,3,1,NA,1,NA,NA,NA,NA,NA,NA,NA,NA,NA,NA,4,4,5,5,5,4,4,1,3,4,3,3,4,2,3,3,2,2,2,2,3,2,2,3,5,2,1,3,3,2,2,2,2,4,2,4,4,4,2,4,2,2,3,4,2,2,2,2,5,2,3,5,2,2,5,NA,1,6,2,2,2,2,5,2,1,2,NA,3,NA,2,2,2,NA,NA,NA,NA,NA,NA,8,6,4,NA,1,5,5,4,5,4,4,4,4,4,3,4,3,4,3,3,3,4,2,1,2,2,2,3,1,2,2,2,2,2,1,2,2,3,4,6,3,6,7,6,2,4,4,4,2,4,2,2,2,4,2,1,2,3,1,2,5,4,4,5,5,5,4,4,1,1,1,3,3,2,2,2,1,2,4,4,3,2,4,2,2,4,4,3,2,5,4,4,4,5,2,4,4,2,2,3,4
"Serbia",1996,2,7,1,4,2,1,0,0,2,NA,36.35,36.4,36.3,44.818603515625,65,10,6,1,2,1,NA,4,4,4,1,4,2,4,4,1,NA,2,8,1,NA,NA,1,2,3,2,"Plesni klub","Demonstratori Centra za promociju nauke",NA,NA,NA,10,2,NA,NA,NA,5,4,4,2,3,5,2,2,3,3,4,3,5,3,4,5,2,2,2,2,5,2,3,4,5,2,4,2,5,3,3,2,1,1,4,4,3,2,3,4,1,1,1,1,3,1,3,5,1,2,5,4,7,8,3,5,1,NA,1,2,4,1,8,8,1,1,1,7,1,1,1,1,1,1,1,1,1,1,1,7,7,1,NA,5,5,5,5,5,5,5,5,3,6,6,6,6,6,6,6,3,4,1,2,1,1,2,2,1,2,1,1,1,1,1,1,4,6,7,1,6,6,6,4,2,2,5,2,3,4,4,3,4,4,3,2,4,4,2,4,5,5,5,4,2,5,3,1,1,1,3,2,2,3,1,1,3,5,5,2,1,2,3,3,5,4,5,1,3,5,4,4,4,1,4,5,4,5,1,5
"Oslo",1996,2,5,2,4,2,1,0,28,2,NA,36.35,36.4,36.3,59.955993652344,94,-6,4,1,2,1,NA,4,4,5,NA,2,1,4,2,1,NA,2,7,3,1,4,1,1,NA,1,NA,NA,NA,NA,NA,NA,NA,NA,NA,NA,4,3,4,5,5,2,4,5,5,4,5,4,5,2,3,4,2,2,2,2,3,2,2,3,5,1,3,2,4,2,4,5,4,3,3,5,5,4,5,4,4,2,2,2,2,3,4,4,4,4,5,4,3,4,6,4,4,2,4,4,1,5,4,6,4,4,4,5,6,4,3,5,4,4,4,4,4,4,5,4,4,4,4,5,4,4,4,4,5,5,5,4,6,5,4,4,6,5,5,3,4,1,3,4,3,4,2,1,2,2,2,1,3,3,2,4,5,3,2,4,4,2,2,3,2,5,3,4,2,1,3,4,2,1,2,3,3,2,3,1,2,2,5,5,4,4,4,3,2,4,3,3,3,4,3,2,4,5,5,2,4,4,3,4,4,1,4,2,1,4,3,3,4,1,2,1,4,2,1
"Tsinghua",1996,2,5,2,3,2,1,3,0,2,0,36.35,36.3,36.4,30.580093383789,82,12,7,3,2,1,0,4,4,5,0,7,3,7,5,1,1,2,8,1,1,8,1,1,3,1,"Ñ§Éú»á","Çà´«",NA,NA,NA,4,3,NA,NA,NA,2,2,2,4,3,3,2,2,2,2,4,2,3,2,2,2,3,3,2,3,3,3,4,1,2,3,3,4,4,4,4,4,4,4,4,4,4,4,4,4,4,4,4,4,4,4,4,5,6,7,6,7,4,5,5,5,6,5,4,6,4,6,5,5,4,4,3,5,4,3,4,4,3,4,3,2,3,3,5,4,5,4,6,4,4,4,4,4,4,3,4,4,2,2,3,4,4,4,4,3,2,3,4,2,3,3,2,4,4,3,2,4,2,2,3,3,2,2,2,2,3,2,2,3,4,4,2,2,2,3,3,4,3,1,2,4,4,3,2,2,2,3,2,4,4,3,4,4,4,3,4,4,2,2,2,2,3,2,3,3,3,4,3,4,4,4,3,4,4,4,4,4,4,3,4,4,4,3,3
"Oslo",1996,2,7,2,1,2,1,0,28,2,NA,36.35,36.3,36.4,NA,83,-7,4,1,2,1,NA,4,4,5,NA,4,2,7,7,1,NA,2,8,1,NA,NA,1,1,NA,1,NA,NA,NA,NA,NA,NA,NA,NA,NA,NA,4,2,3,5,4,3,2,4,4,3,4,4,5,4,4,4,3,4,4,4,4,3,2,3,5,2,4,5,3,2,4,5,5,4,5,4,3,3,5,3,2,2,2,2,2,3,5,5,4,5,5,5,6,2,5,4,1,4,5,4,3,7,1,7,1,3,5,5,5,5,5,3,4,4,5,2,3,3,4,3,4,4,4,4,2,4,4,3,2,1,4,3,6,5,5,5,4,4,4,3,5,5,4,3,4,2,5,4,5,1,5,1,2,1,1,4,6,3,1,3,1,4,1,4,4,2,1,4,2,2,4,5,4,1,4,4,4,2,3,3,3,4,3,5,4,5,5,4,2,3,3,2,2,2,2,1,2,4,4,1,2,4,3,4,3,4,2,4,4,5,4,4,3,4,4,2,3,2,5
"UCSB",1996,2,5,2,2,2,1,1,0,2,NA,36.36111111,36.38888889,36.33333333,34.4329071,64,6.111111111,5,1,2,1,NA,4,4,5,NA,4,3,6,5,1,NA,2,8,1,NA,NA,1,1,NA,2,"PPGA","0","0","0","0",5,0,0,0,0,3,2,1,1,3,3,1,2,1,2,2,3,4,4,3,4,3,3,4,4,4,4,4,1,5,5,5,1,4,2,4,1,1,4,3,4,4,3,4,3,1,1,2,1,3,1,2,4,4,4,6,5,5,7,6,4,4,6,5,6,2,7,6,2,2,2,2,6,3,4,2,1,4,5,2,3,2,2,3,6,6,2,4,4,4,3,5,4,3,2,3,3,5,3,3,2,5,3,5,3,4,2,3,2,2,4,2,5,4,5,2,1,1,2,2,5,4,1,2,3,3,3,2,2,4,4,1,1,5,5,2,5,4,2,5,4,3,3,2,5,4,3,5,5,2,4,3,5,4,3,2,2,2,4,2,2,4,4,4,1,2,4,5,4,4,3,4,2,4,4,3,4,5,5,2,3,4,2,4
"UCSB",1996,2,6,1,4,2,1,0,0,2,NA,36.38888889,36.33333333,36.44444444,32.56939697,74,11.11111111,5,1,2,1,NA,4,4,4,1,5,1,4,3,1,NA,2,5,1,NA,NA,4,1,NA,2,"Volleyball","Soccer","health and wellness","Writing group","Math help group",5,7,5,4,2,4,3,3,4,3,3,4,3,2,3,4,2,4,2,2,3,2,2,2,2,3,2,3,1,5,3,3,1,4,2,4,1,1,3,2,4,4,4,4,3,2,1,1,4,1,1,3,2,3,2,4,3,4,5,5,3,3,2,5,2,2,4,5,3,3,2,4,5,3,3,3,2,4,3,3,3,2,2,3,3,3,3,3,5,5,5,5,5,4,3,4,3,4,3,3,2,3,2,2,2,2,1,1,3,2,2,2,1,2,1,3,4,2,4,2,5,5,5,4,4,2,3,2,4,4,5,4,2,4,4,3,4,3,1,2,4,3,2,3,3,3,2,4,4,4,5,5,5,5,3,4,3,2,3,2,1,4,4,2,2,3,4,3,3,2,3,4,4,4,4,4,4,3,5,4,4,4,2,5
"UCSB",1996,2,7,2,3,2,1,2,0,2,NA,36.38888889,36.27777778,36.5,34.50210571,84,10.55555556,5,1,2,1,NA,4,4,5,NA,2,2,3,3,1,NA,2,6,1,NA,NA,1,1,NA,2,"Phi Delta Epsilon",NA,NA,NA,NA,5,NA,NA,NA,NA,2,2,1,2,2,2,1,2,3,1,2,2,4,5,4,5,3,5,4,4,5,3,4,5,5,3,5,2,2,2,4,2,3,4,4,2,2,1,2,2,2,2,2,2,2,2,2,5,5,4,3,5,2,2,5,5,2,6,2,4,2,7,2,6,4,2,3,6,6,6,6,6,6,6,3,3,6,2,6,6,6,7,4,5,5,5,4,4,5,3,3,3,4,5,3,5,6,5,5,2,4,1,2,2,2,4,4,2,2,4,2,2,2,2,2,2,2,1,2,2,2,2,2,4,4,4,1,4,2,4,5,5,4,2,4,3,5,2,4,4,1,1,5,5,2,1,1,1,3,1,1,1,3,3,3,1,2,2,4,2,2,4,5,4,4,1,1,3,4,1,1,1,2,4,4,4,4,1,5
"UCSB",1996,2,7,1,3,2,1,0,0,2,NA,36.38888889,35.83333333,36.94444444,34.4329071,47,9.444444444,5,1,2,1,NA,4,4,5,NA,7,3,8,8,1,NA,2,8,1,NA,NA,1,2,4,2,"study group","sorority",NA,NA,NA,4,20,NA,NA,NA,4,5,5,3,4,4,5,4,3,5,5,4,5,1,3,4,3,2,1,2,1,3,3,3,5,3,2,4,4,3,4,4,3,4,1,4,4,4,4,4,3,2,2,2,1,3,4,1,5,1,1,1,3,1,2,3,1,2,1,1,1,2,1,1,1,1,2,5,2,2,1,2,2,2,3,1,2,2,1,5,4,2,3,4,4,3,5,5,2,3,5,5,6,6,6,6,5,5,6,1,1,1,1,1,1,2,1,1,1,3,2,1,1,2,2,3,3,4,2,2,4,2,2,4,2,4,3,2,4,4,2,3,2,2,2,4,4,2,2,2,3,2,3,2,4,4,3,5,2,4,4,2,5,2,5,2,4,4,5,2,1,4,3,4,2,4,4,2,3,4,4,4,2,2,4,4,3,2,4
"VCU",1996,2,7,2,4,2,1,0,0,2,NA,36.39,36.5,36.28,37.552597045898,94,13.33333333,5,1,2,1,NA,4,4,5,NA,4,3,5,5,1,NA,2,4,3,1,4,1,1,NA,2,"Sorority",NA,NA,NA,NA,10,NA,NA,NA,NA,2,2,1,1,2,3,1,1,2,2,3,2,2,2,2,4,2,2,2,3,3,3,4,2,4,3,2,2,2,2,2,2,1,4,4,4,1,1,1,1,1,1,1,1,1,1,1,6,6,6,6,6,7,2,6,6,5,6,3,6,3,7,5,7,1,5,6,5,3,5,5,3,5,3,3,5,6,5,3,5,5,5,5,5,4,4,4,4,5,2,4,4,6,5,4,4,6,5,5,1,2,1,2,1,1,1,1,1,1,1,2,2,1,1,1,3,4,4,4,4,5,4,1,4,4,2,4,2,2,2,4,2,2,1,1,4,5,4,5,4,2,2,4,5,4,3,1,3,4,4,4,2,2,4,3,4,5,5,2,4,2,2,2,5,4,1,4,5,4,1,1,4,2,5,4,4,4,2,1
"Serbia",1996,2,6,2,4,2,1,0,0,2,NA,36.4,36.3,36.5,44.818603515625,45,12,6,1,2,1,NA,2,2,5,NA,1,NA,4,4,1,NA,2,4,1,NA,NA,1,1,NA,1,NA,NA,NA,NA,NA,NA,NA,NA,NA,NA,4,3,3,2,3,3,4,2,3,2,4,3,2,2,2,4,3,4,3,3,4,3,3,3,5,2,2,2,1,1,2,1,2,1,1,1,4,2,4,2,2,1,1,2,1,1,4,1,2,1,1,1,8,1,1,7,1,6,1,1,4,8,1,8,1,1,7,1,7,8,1,4,7,7,7,7,7,7,1,7,7,7,7,4,4,4,4,4,3,3,4,4,6,5,6,5,4,4,5,4,4,1,4,2,1,4,4,4,4,2,3,3,2,4,2,1,4,4,3,3,4,4,1,4,1,3,1,3,3,2,2,5,4,3,3,2,5,5,3,5,3,3,3,3,3,2,1,1,2,5,5,2,1,1,1,3,3,3,3,3,2,4,3,3,4,3,1,5,4,3,3,4,3,3,3,3,3,2,2
"Kassel",1996,2,7,1,4,2,1,12,0,2,NA,36.4,36.6,36.2,51.31950378418,71,4,1,1,2,1,NA,4,2,5,NA,5,5,7,7,1,NA,2,3,1,NA,NA,1,2,8,2,"DLRG",NA,NA,NA,NA,6,NA,NA,NA,NA,3,5,2,2,1,4,2,3,3,3,3,3,2,3,4,3,2,3,3,2,3,2,3,4,5,1,3,3,3,1,2,2,1,1,1,4,3,1,1,1,1,1,1,2,1,1,1,2,2,1,3,6,1,4,3,6,1,3,1,2,1,2,1,4,1,1,3,2,1,1,1,1,1,1,2,2,2,3,1,5,4,1,1,5,5,5,4,5,3,3,4,3,3,3,5,5,4,3,3,1,2,1,3,2,2,3,1,3,3,2,2,3,3,3,3,5,4,4,2,2,1,2,4,2,3,5,3,1,4,2,2,1,3,1,3,3,2,2,1,4,3,5,5,5,4,4,5,5,3,3,4,3,1,2,1,1,4,4,5,1,2,2,4,4,3,4,3,2,4,2,5,5,1,3,2,3,3,1,4
"Serbia",1996,2,6,2,5,2,1,3,0,2,NA,36.4,36.4,36.4,44.818603515625,53,6,6,1,2,1,NA,4,4,5,NA,7,4,4,4,2,1,2,7,1,NA,NA,3,1,NA,1,NA,NA,NA,NA,NA,NA,NA,NA,NA,NA,3,4,4,4,4,4,4,4,4,4,4,4,4,3,3,3,3,2,1,2,2,2,2,3,5,2,3,2,3,2,2,2,2,2,2,2,3,3,3,4,1,1,2,2,1,3,2,4,4,4,8,8,5,4,8,4,4,NA,4,4,2,5,4,5,4,5,4,4,3,5,5,5,6,4,4,NA,4,4,8,4,6,4,4,5,5,4,5,5,4,3,3,4,3,3,3,3,3,3,3,2,4,1,4,3,2,4,4,3,2,2,3,3,3,4,2,3,4,4,1,4,4,4,4,4,4,4,2,2,2,2,2,5,4,3,3,2,3,4,4,3,3,3,3,3,3,3,2,2,1,3,4,4,3,3,2,2,3,4,3,2,2,3,3,4,3,2,2,3,3,3,3,3,3,5,3,3,3,2,4
"Serbia",1996,2,7,2,5,2,1,4,0,2,NA,36.4,36.4,36.4,44.818603515625,44,12,6,1,2,1,NA,4,4,5,NA,5,3,8,8,1,NA,2,8,1,NA,NA,4,1,NA,1,NA,NA,NA,NA,NA,NA,NA,NA,NA,NA,3,5,3,5,1,3,3,4,2,1,2,4,2,2,3,2,1,1,1,2,4,2,2,3,5,2,3,3,4,1,2,1,1,2,1,5,3,4,1,4,1,1,2,1,1,2,4,5,5,2,5,2,5,4,1,3,1,NA,4,2,1,4,4,2,1,7,5,7,6,3,2,3,3,5,5,NA,7,4,4,7,7,6,4,5,5,5,5,5,5,5,5,5,4,5,4,2,3,4,4,3,3,1,3,4,4,2,1,4,2,2,1,2,2,1,5,5,6,4,3,5,2,5,1,5,3,5,3,4,3,2,5,4,4,1,3,4,4,2,4,5,5,3,4,3,3,3,3,1,1,2,3,3,2,1,3,1,3,3,2,2,3,2,5,5,3,2,1,5,5,5,2,3,5,3,4,2,1,4,4
"Serbia",1996,2,2,2,4,2,1,0,0,2,NA,36.4,36.3,36.5,44.818603515625,45,12,6,1,2,1,NA,4,4,5,NA,5,4,5,5,1,NA,2,8,1,NA,NA,2,1,NA,1,NA,NA,NA,NA,NA,NA,NA,NA,NA,NA,4,3,2,2,4,3,1,2,4,4,3,3,3,3,4,4,3,3,3,2,3,3,3,4,4,3,3,4,4,3,4,2,2,3,3,4,4,4,4,3,4,1,3,2,1,1,4,4,4,4,4,4,3,5,4,4,4,4,3,2,3,3,3,4,3,5,4,5,4,5,4,3,5,5,5,3,5,4,3,6,5,5,5,4,4,4,4,4,4,3,4,3,3,4,3,3,4,3,3,2,3,2,3,2,2,3,3,4,2,2,2,2,4,3,2,4,6,4,2,4,4,6,4,4,4,3,2,2,3,3,2,4,4,3,2,2,4,4,3,2,2,3,3,3,3,3,3,3,3,4,4,2,4,3,3,2,4,4,4,3,2,2,3,4,4,2,3,3,4,3,3,4,4,3,3,4,2,2,2
"Tsinghua",1996,2,7,2,2,2,1,0,0,2,0,36.4,36.7,36.1,30.580093383789,82,12,7,3,2,1,0,4,4,5,0,5,1,4,3,1,1,2,1,1,1,1,1,2,1,1,"Ñ§Éú»á",NA,NA,NA,NA,NA,NA,NA,NA,NA,2,2,2,2,4,2,2,3,2,2,2,2,2,2,3,2,5,3,4,5,2,4,5,2,3,4,2,4,4,4,4,4,3,2,2,4,4,4,4,3,2,4,4,2,3,3,4,6,5,5,5,5,5,5,5,5,4,4,5,4,5,5,4,5,4,4,3,3,3,4,2,4,3,3,3,3,4,3,4,3,2,3,4,5,5,5,4,4,3,4,4,4,6,2,3,3,6,5,5,2,4,2,3,2,4,4,4,4,2,2,4,3,2,4,3,1,2,3,2,2,2,2,2,3,3,4,2,2,2,3,4,4,2,2,2,3,3,2,3,4,2,2,3,2,3,2,2,3,3,3,3,3,2,3,2,2,4,3,2,2,2,3,2,4,4,2,4,3,2,4,3,2,4,2,4,4,3,2,4
"SMU",1996,2,7,2,3,2,1,2,0,2,NA,36.4,36.4,36.4,1.2931060791016,71,26,5,1,2,1,NA,4,4,5,NA,8,5,8,7,1,NA,2,8,1,NA,NA,5,2,8,2,"Volunteer","LTB","Biz Law","DA","JC clique",11,7,4,4,5,2,2,2,5,3,4,2,2,2,4,4,2,4,3,2,3,4,3,2,2,3,2,2,2,4,2,2,2,5,2,4,4,4,4,2,4,4,4,1,4,2,1,1,2,3,1,4,4,5,4,6,6,5,4,5,3,4,5,6,5,5,5,6,7,1,6,5,2,2,3,1,2,2,2,5,2,4,1,2,3,3,2,4,5,4,5,5,5,5,5,5,5,6,7,6,6,6,6,5,2,4,1,3,1,2,3,3,2,2,1,2,2,1,2,2,4,5,4,2,2,4,5,3,5,5,3,1,2,4,5,4,5,5,1,4,5,2,4,1,5,4,4,5,4,3,5,4,3,4,3,4,3,3,2,2,4,1,4,2,4,2,2,2,4,2,4,3,4,4,4,4,4,4,5,3,4,2,1,5
"Serbia",1996,2,7,2,3,2,1,2,0,2,NA,36.4,36.4,36.4,44.818603515625,75,4,6,1,2,1,NA,4,2,5,NA,2,1,4,3,1,NA,2,8,1,NA,NA,1,1,NA,1,NA,NA,NA,NA,NA,NA,NA,NA,NA,NA,1,5,5,2,5,5,1,1,5,3,5,5,5,4,4,5,3,3,1,5,1,5,5,3,5,2,1,5,5,1,5,5,1,2,5,5,5,5,5,5,5,1,1,5,1,1,5,4,4,4,4,4,7,4,4,4,4,4,4,4,4,4,4,7,4,4,4,4,4,4,4,4,4,4,4,4,4,4,4,4,4,4,4,5,5,5,5,5,5,5,5,5,7,7,7,7,7,7,7,1,1,1,1,1,1,1,1,5,1,4,1,5,1,5,1,1,1,4,1,3,1,1,1,1,1,5,1,5,1,1,5,5,5,1,1,1,5,5,1,5,1,3,3,1,3,2,3,3,1,1,5,5,1,3,3,5,5,5,3,2,1,5,5,5,5,1,1,3,5,1,3,1,5,1,1,1,1,5,5
"Tsinghua",1996,2,1,2,2,2,1,1,3,2,0,36.4,36.4,36.4,30.580093383789,71,16,7,3,2,1,0,4,4,5,0,8,3,4,2,1,1,2,3,1,1,5,5,2,1,2,NA,NA,NA,NA,NA,NA,NA,NA,NA,NA,4,4,4,4,5,5,1,4,2,2,4,2,2,3,2,2,4,4,3,3,2,4,4,4,3,3,2,4,4,3,4,3,4,4,4,4,4,4,4,4,4,2,2,2,2,3,4,5,2,2,5,6,3,5,5,6,2,5,2,2,2,6,5,6,2,3,1,2,1,2,2,2,3,2,2,1,5,2,3,6,3,2,4,5,5,5,5,5,5,5,5,5,5,2,4,5,4,4,4,2,2,2,2,3,4,3,4,3,2,3,2,2,1,4,2,2,2,4,2,2,1,2,2,4,4,4,1,3,3,4,4,4,2,2,2,4,4,2,2,4,2,3,2,4,3,2,3,4,5,2,4,5,2,1,2,2,3,3,2,2,2,4,4,4,4,3,2,4,2,2,2,4,2,4,4,4,3,2,2
"METU",1996,2,3,1,4,2,1,8,0,1,4,36.4,36.4,36.4,39.911697387695,70,3,3,2,2,1,NA,4,4,4,1,4,2,5,4,1,NA,2,8,1,NA,NA,3,2,8,2,"Ankara G?n¨¹ll¨¹ Tak?m?",NA,NA,NA,NA,12,NA,NA,NA,NA,4,2,3,4,2,2,2,2,1,2,3,2,3,3,3,4,2,3,3,3,3,3,3,4,4,4,2,4,4,4,4,4,4,4,4,4,3,3,3,3,3,2,4,4,2,3,4,6,5,5,6,6,6,6,5,6,4,6,2,5,3,5,5,3,1,4,4,6,5,5,4,6,4,5,3,2,4,2,6,4,4,2,3,4,4,4,5,4,4,4,3,4,6,5,5,5,6,5,5,4,4,3,3,4,4,4,3,3,4,3,1,4,2,3,1,5,7,6,6,6,6,3,3,3,4,4,2,2,4,3,2,4,4,2,3,4,4,4,4,4,4,4,4,2,5,5,5,4,4,3,4,4,2,2,2,2,3,4,4,4,2,3,4,3,4,5,2,4,2,4,3,5,5,4,5,2,2,2,5
"VCU",1996,2,7,2,4,2,1,2,0,2,NA,36.41666667,36.44444444,36.38888889,37.580902099609,85,15,5,1,2,1,NA,4,4,5,NA,5,5,2,2,2,1,2,4,3,1,6,2,2,1,1,NA,NA,NA,NA,NA,NA,NA,NA,NA,NA,4,2,4,5,4,4,4,3,4,5,5,5,5,2,3,4,1,1,2,2,3,1,3,3,5,2,2,1,4,1,4,1,1,1,4,4,4,2,2,2,2,2,2,2,2,2,2,2,2,2,2,2,2,1,2,2,2,2,2,2,2,2,2,2,2,2,2,6,2,2,2,2,2,2,2,2,2,2,2,6,6,2,2,5,5,5,5,5,5,3,3,3,7,5,4,4,5,5,5,2,2,2,2,2,2,2,2,2,2,2,2,2,2,2,2,4,7,6,5,5,5,5,2,4,4,4,2,2,4,2,2,4,4,2,4,2,2,4,2,4,2,2,4,4,4,4,2,2,2,2,2,2,2,2,2,2,4,4,4,2,2,4,4,2,4,4,4,4,4,4,4,2,2,4,4,2,2,2,4
"VCU",1996,2,7,1,4,2,1,0,4,2,NA,36.41666667,36.38888889,36.44444444,37.552200317383,91,14.44444444,5,1,2,1,NA,4,2,4,2,6,1,5,5,1,NA,2,2,3,1,3,1,1,NA,2,"Sorority",NA,NA,NA,NA,10,NA,NA,NA,NA,2,3,2,3,3,2,2,2,2,2,4,2,2,4,4,4,4,3,2,3,4,3,4,5,4,3,3,3,3,2,4,2,2,2,4,5,4,4,4,3,3,2,3,2,2,2,2,2,2,2,3,2,2,3,3,2,2,2,2,5,2,3,2,3,2,2,1,2,1,2,1,2,1,2,2,2,2,2,5,2,1,1,2,4,4,4,4,4,4,3,4,4,4,5,3,4,3,3,4,2,4,4,4,2,3,5,4,4,4,4,2,4,2,2,2,3,3,4,2,2,3,2,3,5,4,4,2,4,4,2,2,5,2,2,3,4,4,3,2,4,2,2,5,4,4,4,4,4,4,4,2,2,2,2,3,2,4,4,1,2,2,4,2,4,3,2,2,2,3,2,4,4,4,3,2,2,3,1,2
"VCU",1996,2,6,1,3,2,1,7,0,2,NA,36.41666667,36.27777778,36.55555556,37.553802490234,97,11.11111111,5,1,2,1,NA,4,4,5,NA,6,3,8,8,2,1,2,8,3,1,8,1,1,NA,2,"BPSA",NA,NA,NA,NA,1,NA,NA,NA,NA,2,2,2,3,2,2,2,3,1,2,3,2,2,2,2,4,3,3,2,2,2,3,3,2,5,3,3,3,5,3,5,4,4,5,5,4,4,4,4,4,4,2,3,4,2,4,5,1,2,2,3,2,2,2,3,2,2,1,2,1,1,5,1,3,2,5,2,6,5,5,2,4,2,2,2,2,2,2,2,2,3,4,2,4,5,5,5,5,5,4,5,5,5,5,6,6,5,4,4,2,4,2,4,4,1,2,3,3,2,1,1,1,4,2,1,2,3,2,2,2,2,2,4,5,5,2,1,1,5,5,1,5,5,2,5,5,2,5,3,5,1,1,4,3,3,3,3,4,5,4,4,4,4,4,4,4,5,4,2,2,1,4,4,2,5,1,3,5,4,2,2,4,3,5,1,3,2,1,5
"Serbia",1996,2,7,2,3,2,1,0,0,2,NA,36.425,36.25,36.6,44.818603515625,75,4,6,1,2,1,NA,4,4,5,NA,5,3,2,8,1,NA,2,4,1,NA,NA,1,1,NA,1,NA,NA,NA,NA,NA,NA,NA,NA,NA,NA,2,5,5,5,5,2,4,2,5,4,5,4,2,4,4,3,3,4,3,3,3,4,3,3,4,4,2,1,1,1,1,1,1,1,2,3,4,3,4,3,2,1,1,1,1,1,4,3,3,3,8,5,2,1,8,3,1,4,8,2,2,8,4,4,2,5,NA,2,NA,2,2,2,6,3,6,NA,5,NA,2,7,7,6,NA,5,5,4,5,5,3,5,5,4,6,2,2,2,6,6,7,4,5,1,5,3,2,2,2,5,3,1,3,4,3,3,3,2,3,5,1,3,3,3,2,2,5,4,3,3,3,3,3,3,2,2,2,2,2,2,4,4,4,4,4,3,3,3,2,2,1,2,2,2,2,2,2,2,2,2,2,2,3,4,4,3,2,2,2,4,4,2,2,4,4,3,2,4,2,3,3
"UCSB",1996,2,7,2,4,1,1,0,0,2,NA,36.44444444,35.94444444,36.94444444,34.4329071,83,11.11111111,5,1,2,1,NA,4,2,2,1,2,1,8,8,1,NA,2,8,1,NA,NA,8,1,NA,1,NA,NA,NA,NA,NA,NA,NA,NA,NA,NA,5,2,4,5,2,2,2,4,2,2,3,4,4,4,3,5,3,3,4,4,4,4,3,4,5,2,4,3,4,2,4,2,2,2,2,2,4,4,4,3,1,1,1,1,1,1,3,2,2,3,3,4,2,1,3,4,2,2,2,2,2,2,2,2,4,6,5,7,6,5,6,5,4,5,4,6,7,3,5,5,6,5,4,4,5,4,3,5,5,3,5,5,5,2,2,2,5,5,5,2,2,3,2,1,1,2,4,4,3,2,2,2,1,2,3,5,6,2,2,2,2,2,1,4,4,4,4,4,4,4,4,2,2,1,2,4,4,3,1,2,2,2,4,4,5,4,4,3,3,4,3,3,3,3,3,4,5,5,3,5,2,2,2,5,2,2,3,4,5,4,4,2,4,2,2,4,2,2,1
"Serbia",1996,1,7,2,3,2,1,2,0,2,NA,36.45,36.4,36.5,44.818603515625,65,8,6,1,2,1,NA,4,4,5,NA,1,NA,3,1,2,1,2,5,1,NA,NA,1,1,NA,1,NA,NA,NA,NA,NA,NA,NA,NA,NA,NA,2,4,1,5,3,3,1,2,2,1,3,2,2,4,4,5,3,3,4,4,5,3,4,3,4,3,5,1,1,1,1,1,1,1,1,2,1,1,1,1,1,1,1,1,1,1,1,1,1,1,1,1,1,1,1,7,1,7,1,1,1,1,1,1,1,1,7,1,7,1,1,1,7,7,7,7,7,7,1,7,7,7,7,5,5,5,5,5,4,4,4,4,5,5,4,4,6,6,5,2,3,1,4,4,2,4,4,2,4,1,2,2,3,4,2,5,5,4,1,4,4,4,1,3,2,4,1,1,1,1,4,5,4,5,1,1,3,5,1,1,1,1,3,1,1,1,1,1,2,3,5,5,2,4,1,1,2,3,1,1,2,4,4,2,4,1,2,5,3,1,1,1,5,4,1,1,1,1,1
"Kassel",1996,1,7,1,4,2,1,3,0,2,NA,36.45,36.3,36.6,49.199996948242,84,3,1,1,1,1,NA,4,4,4,2,4,2,5,3,2,1,2,6,1,NA,NA,1,1,NA,2,"Rugby",NA,NA,NA,NA,2,NA,NA,NA,NA,4,3,5,4,3,2,1,4,3,3,4,3,5,2,2,2,1,4,3,2,2,4,3,3,4,2,3,2,4,1,4,1,1,1,1,3,4,3,1,3,1,1,1,1,1,1,1,6,5,1,1,4,6,6,5,3,2,5,5,2,5,4,1,5,1,5,4,5,1,2,1,1,2,2,2,2,2,3,1,2,3,2,2,4,4,4,4,2,3,2,4,4,5,5,5,4,6,6,5,2,3,2,2,1,1,2,2,2,2,4,1,1,2,4,1,4,5,4,2,3,4,1,4,2,4,4,2,4,4,5,2,4,3,2,4,5,4,1,1,4,4,4,2,4,3,5,4,4,4,4,3,2,1,3,2,1,1,4,1,5,2,3,4,2,2,2,2,5,5,3,4,4,3,2,1,4,2,4,1
"METU",1996,2,5,2,4,2,1,0,0,1,2,36.45,36.3,36.6,39.911697387695,64,6,3,2,2,1,NA,4,4,5,NA,6,5,7,7,2,1,2,8,1,NA,NA,1,1,NA,2,"??renci toplulu?u","??renci toplulu?u",NA,NA,NA,4,5,NA,NA,NA,5,5,5,5,5,5,4,3,4,3,5,5,5,3,4,5,3,2,3,3,4,3,3,4,4,2,4,4,4,5,3,4,4,4,3,4,5,3,5,5,5,4,3,3,4,2,5,6,6,6,6,6,6,6,6,6,5,6,5,4,2,1,6,5,4,2,3,6,6,5,2,2,4,3,2,2,2,2,4,6,6,2,4,4,4,4,4,4,4,4,4,4,7,6,7,7,5,4,5,1,3,1,3,2,4,4,2,3,4,3,1,1,3,2,1,4,7,5,1,3,5,2,2,2,3,5,2,4,4,3,5,4,4,1,4,4,3,4,4,5,2,4,4,2,4,4,4,4,4,4,4,4,3,3,3,4,4,3,5,4,1,4,4,3,3,4,2,4,3,5,5,5,2,4,4,5,4,3,5
"SMU",1996,2,7,1,3,2,1,1,0,2,NA,36.45,36.7,36.2,1.2931060791016,70,26,5,1,2,1,NA,4,4,5,NA,8,1,8,4,2,1,2,8,1,NA,NA,1,1,NA,2,"CCA club","Catholic society",NA,NA,NA,4,3,NA,NA,NA,3,3,3,3,3,3,3,4,3,2,3,3,3,3,3,4,3,3,3,3,3,3,3,3,3,3,3,4,4,3,4,4,5,3,5,4,4,4,4,4,4,4,4,4,4,3,4,5,5,3,4,4,3,5,3,2,2,4,2,4,3,3,6,6,3,3,6,3,2,2,3,4,2,2,2,2,2,1,1,2,2,3,3,5,5,5,5,5,5,5,5,5,5,7,6,6,6,6,6,3,4,4,2,4,2,4,4,4,2,4,2,4,2,3,2,3,4,5,2,2,2,2,2,4,5,3,1,3,3,3,4,4,4,2,4,4,4,4,4,4,3,4,4,4,4,4,4,4,4,4,4,3,3,3,2,2,2,4,4,3,4,4,4,4,4,4,3,4,4,4,4,4,4,4,4,4,3,1,3
"Poland",1996,2,7,1,3,2,1,NA,0,1,4,36.45,36.5,36.4,52.25,68,0,9,1,2,1,NA,4,4,5,1,3,1,2,4,2,1,2,8,2,1,1,1,1,NA,1,NA,NA,NA,NA,NA,NA,NA,NA,NA,NA,3,4,2,4,4,5,2,2,4,3,3,3,2,3,2,3,3,5,3,4,2,3,3,5,4,2,2,4,5,4,4,4,4,5,3,4,5,4,5,5,5,2,4,4,2,4,5,6,5,2,1,4,7,5,6,6,1,1,1,1,1,1,7,7,1,1,1,7,1,1,1,1,1,1,1,1,1,1,1,7,7,1,1,5,4,4,5,5,4,4,5,5,1,4,3,3,2,2,3,2,1,2,2,3,4,4,1,1,2,2,4,1,1,2,1,3,6,7,4,4,4,4,1,4,1,4,5,4,4,4,3,2,2,1,1,1,4,2,4,1,2,5,1,2,5,5,4,5,5,4,5,5,1,1,1,1,2,3,4,2,2,2,3,2,3,2,1,1,4,5,5,4,1,2,4,4,3,4,4
"UCSB",1996,1,7,2,5,2,1,0,0,2,NA,36.47222222,36.72222222,36.22222222,34.4329071,84,7.222222222,5,1,2,1,NA,4,4,5,NA,8,4,3,3,2,1,2,7,1,NA,NA,1,2,2,1,NA,NA,NA,NA,NA,NA,NA,NA,NA,NA,5,4,4,4,5,5,4,4,2,4,4,5,5,2,4,3,1,1,2,2,3,2,2,3,5,2,3,2,4,3,4,2,3,4,2,4,5,4,5,5,3,2,2,3,5,3,4,4,5,5,4,5,6,5,5,4,2,4,4,5,4,1,4,2,4,4,2,7,3,6,5,2,5,4,2,3,2,2,2,5,6,4,5,5,4,3,4,5,3,3,4,5,7,3,3,2,4,4,4,1,3,1,4,1,2,1,3,2,1,1,2,1,2,3,3,4,5,3,2,2,2,2,2,2,4,4,1,3,3,3,3,4,2,4,3,2,2,3,4,3,3,3,3,2,4,3,2,4,4,4,3,3,3,3,3,1,1,5,5,2,2,3,5,2,4,1,3,4,3,3,3,2,3,4,3,1,3,4,2
"METU",1996,2,5,1,4,2,1,4,0,2,NA,36.5,36.3,36.7,39.911697387695,71,8,3,2,2,1,NA,4,4,4,1,5,4,6,6,1,NA,2,8,1,NA,NA,4,2,8,2,"ODT? Quidditch toplulu?u","ODT? LGBT? ?al??malar?",NA,NA,NA,7,7,NA,NA,NA,5,5,4,4,4,5,5,2,2,5,5,3,5,2,2,2,1,2,1,1,1,2,1,1,3,1,1,1,1,1,1,2,2,1,1,1,2,2,2,2,2,1,1,1,1,1,1,5,2,2,3,6,3,1,5,5,2,4,2,1,5,2,2,1,1,2,1,2,1,2,1,1,1,1,1,1,2,1,1,2,1,1,2,5,5,5,5,5,4,2,3,1,2,2,2,1,1,2,1,1,1,1,1,1,1,1,1,1,1,1,1,1,1,1,1,5,6,4,2,3,3,4,2,1,4,4,1,2,4,2,4,5,4,4,4,4,2,4,1,4,4,5,2,1,4,5,5,5,4,4,5,4,1,1,1,3,2,5,2,3,2,2,3,5,1,4,2,4,2,5,5,4,1,4,5,2,4,2,3
"Oslo",1996,2,4,2,4,2,1,29,0,2,NA,36.5,36.5,36.5,59.912704467773,69,-4,4,1,2,1,NA,4,2,5,NA,2,1,8,6,1,NA,1,NA,1,NA,NA,2,1,NA,2,"Cosplay Gruppe","Insomnia",NA,NA,NA,7,0,0,0,0,3,3,2,4,4,3,1,4,1,3,3,4,4,3,2,2,2,3,1,3,3,2,2,1,4,3,3,3,1,1,2,2,1,2,1,4,4,3,4,4,3,1,1,2,1,3,4,5,2,2,5,6,2,1,4,3,2,2,3,3,1,2,3,3,4,2,2,3,2,1,1,2,2,2,2,4,2,3,1,4,4,1,2,3,3,3,5,5,3,2,2,2,6,6,5,4,4,3,4,3,3,3,4,2,2,2,3,2,2,1,2,2,3,4,2,3,4,4,1,1,4,3,4,4,2,4,2,1,5,3,2,4,4,1,2,3,4,2,4,3,3,4,1,1,3,5,4,4,2,4,4,2,2,3,2,1,1,4,1,3,1,3,3,4,5,4,5,3,3,4,4,5,2,3,4,5,3,2,2
"UCSB",1996,1,7,2,3,2,1,0,0,2,NA,36.5,36.44444444,36.55555556,34.4329071,84,7.222222222,5,1,2,1,NA,4,2,5,NA,8,1,6,5,1,NA,2,8,1,NA,NA,8,2,8,2,"CKI","N/A","N/A","N/A","N/A",7,0,0,0,0,4,3,4,2,5,4,3,3,2,3,4,3,4,4,4,4,3,3,3,3,3,3,3,4,5,2,4,1,5,2,4,2,1,3,1,1,5,3,4,3,1,1,1,1,2,1,5,4,4,4,5,4,4,4,4,4,4,6,4,4,4,5,4,4,4,4,4,7,4,4,4,4,4,4,4,4,4,4,4,4,4,4,4,2,4,3,3,3,2,1,3,2,4,6,5,4,5,5,4,4,5,3,5,3,1,5,3,3,4,4,3,2,1,2,3,5,6,6,6,5,5,5,3,4,5,2,1,1,3,3,3,5,4,2,5,5,2,3,2,1,1,3,5,5,5,1,4,3,3,3,3,2,3,4,3,1,2,4,3,2,2,4,4,1,2,1,4,4,5,1,1,4,4,3,1,3,1,3,1
"Serbia",1996,2,7,2,4,2,1,1,0,2,NA,36.5,36.5,36.5,44.818603515625,45,12,6,1,2,1,NA,4,4,5,NA,2,1,3,3,1,NA,2,8,1,NA,NA,2,1,NA,2,"Klub studenata pedagogije",NA,NA,NA,NA,7,NA,NA,NA,NA,3,3,3,5,4,4,1,1,3,3,4,4,3,2,2,3,2,2,3,3,4,3,3,2,5,2,2,2,2,2,3,2,2,3,1,4,4,3,2,3,2,1,1,2,1,1,2,3,3,3,4,8,4,5,5,3,3,3,2,2,2,3,5,5,2,3,NA,8,NA,4,4,4,4,4,3,NA,6,5,4,6,6,4,5,5,4,5,5,4,4,3,4,3,3,3,2,2,4,3,3,3,3,1,3,4,1,2,3,3,1,2,2,2,2,3,1,5,5,4,2,3,2,3,1,3,2,4,2,4,3,3,4,4,2,4,3,3,3,2,5,3,4,4,4,4,4,4,3,3,3,2,4,4,2,2,3,4,4,3,2,2,2,3,3,3,4,2,2,4,4,2,4,4,3,5,3,4,4,2,4
"Oslo",1996,2,7,1,2,2,1,NA,NA,2,NA,36.5,36.3,36.7,59.912704467773,87,-3,4,1,5,1,NA,4,4,4,1,6,3,5,5,1,NA,2,8,3,1,1,1,1,NA,1,NA,NA,NA,NA,NA,NA,NA,NA,NA,NA,5,4,4,4,4,2,3,5,3,4,4,4,3,4,3,4,3,4,2,3,4,3,3,3,4,3,3,2,2,2,2,2,2,2,3,4,4,4,4,3,3,2,1,1,2,2,3,3,5,2,7,4,4,3,3,5,2,4,3,1,5,5,5,6,2,2,2,3,3,3,3,3,3,4,3,4,2,3,3,4,3,3,5,5,5,5,5,5,5,3,5,5,5,6,4,3,4,4,4,3,3,3,3,3,3,3,3,2,3,3,3,3,2,3,3,5,5,4,4,3,5,4,2,2,3,3,3,2,2,2,2,2,3,2,2,4,4,2,3,3,2,2,3,3,4,3,4,4,4,4,4,4,2,2,2,2,2,2,2,2,2,2,2,4,2,3,2,4,4,4,3,4,2,4,3,4,3,4,2
"Serbia",1996,2,7,1,3,2,1,14,0,2,NA,36.5,36.3,36.7,44.818603515625,55,-2,6,1,2,1,NA,4,4,5,NA,6,4,6,6,1,NA,2,6,1,NA,NA,1,1,NA,1,NA,NA,NA,NA,NA,NA,NA,NA,NA,NA,3,4,3,3,2,4,3,3,4,2,4,3,3,3,3,3,3,3,3,3,3,4,3,4,4,2,3,2,3,2,2,2,2,3,2,3,4,3,3,3,2,1,2,1,1,2,3,5,5,2,8,8,5,5,5,5,2,3,2,3,2,4,5,5,2,3,4,8,3,5,2,4,5,4,5,4,6,5,3,6,6,NA,4,5,5,4,5,5,5,5,5,5,6,7,6,6,7,6,6,3,3,2,3,3,2,3,2,2,3,4,2,3,2,3,3,4,4,5,2,3,4,4,1,2,1,5,4,4,4,4,3,3,2,3,2,2,3,3,4,4,4,4,4,3,4,4,2,2,1,2,2,3,2,3,2,2,3,3,3,2,4,2,3,2,4,3,2,4,4,4,4,3,3,4,2,2,3,2,1
"Kassel",1996,2,7,1,2,2,1,0,0,2,NA,36.5,36.3,36.7,53.109405517578,NA,NA,1,1,2,1,NA,4,4,4,1,3,2,6,6,2,1,2,8,1,NA,NA,1,1,NA,1,NA,NA,NA,NA,NA,NA,NA,NA,NA,NA,3,3,5,5,2,4,2,4,2,4,5,5,4,3,3,4,3,2,4,2,2,3,2,2,4,2,3,3,3,2,3,3,2,2,2,2,3,3,3,4,1,1,1,1,1,1,3,2,4,1,1,2,5,1,2,3,2,7,1,1,1,4,1,4,1,2,2,4,5,6,4,5,3,2,3,3,1,4,1,3,4,5,2,4,4,4,4,4,3,2,4,4,4,4,4,3,3,3,2,2,1,1,2,2,2,2,2,1,1,4,2,2,2,1,4,4,8,7,5,5,5,5,3,3,2,5,5,2,2,2,2,3,3,1,2,5,3,5,3,3,2,5,3,5,4,4,4,4,4,3,3,3,1,1,1,3,3,2,5,1,3,2,5,4,1,1,1,4,4,5,5,5,5,3,5,4,3,5,1
"Serbia",1996,2,7,2,4,2,1,2,0,2,NA,36.5,36.5,36.5,44.818603515625,36,12,6,1,2,1,NA,4,4,5,NA,3,2,7,7,1,NA,2,8,1,NA,NA,1,1,NA,1,NA,NA,NA,NA,NA,NA,NA,NA,NA,NA,3,2,1,4,2,2,2,2,2,3,3,2,2,3,3,4,3,3,3,3,4,3,3,2,5,2,3,3,3,3,4,2,3,2,2,3,4,3,4,2,4,3,3,4,2,2,4,5,3,2,2,4,5,4,3,3,2,4,2,3,2,2,3,2,2,2,1,4,1,3,3,2,5,NA,NA,1,NA,NA,2,4,4,NA,NA,4,3,4,4,4,4,3,3,3,7,5,5,5,6,6,6,4,2,2,4,4,4,5,2,2,4,4,1,3,2,3,3,3,3,6,2,4,5,5,2,4,3,4,3,2,3,3,3,4,4,4,2,2,4,3,4,4,4,4,3,3,3,3,2,2,2,3,4,4,2,4,2,2,5,4,4,4,3,2,3,4,4,2,2,4,4,3,3,4,3,5,3,4,3,1,4
"Tsinghua",1996,1,6,2,3,2,1,0,0,2,0,36.5,36.6,36.4,30.580093383789,72,14,7,3,2,1,0,4,4,5,0,8,5,4,3,1,1,1,8,1,1,1,4,2,1,1,"ÉçÍÅÁªºÏ»á","°à¼¶","ÇàÄê´«Ã½ÖÐÐÄ",NA,NA,NA,NA,NA,NA,NA,4,4,4,4,4,4,2,3,2,4,4,4,4,1,2,2,2,2,2,2,1,2,2,1,4,2,1,3,2,2,4,3,3,4,4,2,4,2,4,2,2,2,2,2,2,2,2,5,2,2,2,5,2,2,4,2,2,2,2,4,4,4,2,5,2,6,2,2,1,2,2,2,3,2,3,3,4,2,2,2,3,2,2,4,4,4,4,4,4,4,4,4,7,2,2,5,5,5,5,1,1,1,2,2,1,2,2,3,1,2,1,2,2,2,2,3,3,3,2,2,2,2,2,2,4,4,2,3,3,3,3,4,2,5,3,4,3,3,2,3,4,4,2,2,4,4,4,4,4,4,4,4,2,2,2,4,4,5,4,4,2,4,3,4,3,2,2,3,4,4,3,4,4,4,3,4,4,3,1
"Serbia",1996,2,7,2,4,2,1,1,0,2,NA,36.5,36.3,36.7,44.779205322266,53,6,6,1,2,1,NA,4,4,5,NA,8,8,8,8,1,NA,2,8,1,NA,NA,1,2,7,2,"Klub studenata pedagogije",NA,NA,NA,NA,7,NA,NA,NA,NA,4,2,2,4,3,4,2,2,4,4,2,4,4,3,3,3,2,2,2,3,3,3,2,3,5,2,2,3,4,4,4,4,2,2,2,4,4,4,4,3,2,2,4,2,4,2,4,3,3,3,5,5,5,2,8,3,2,5,2,2,5,2,2,8,1,2,NA,8,NA,2,2,2,NA,NA,3,NA,3,3,2,6,6,NA,NA,4,3,4,4,4,4,2,3,2,6,6,6,6,5,5,5,3,2,1,3,2,2,4,2,2,2,2,2,2,2,2,1,4,4,5,1,2,3,4,3,4,4,4,1,2,4,2,2,5,2,2,3,2,4,2,5,4,5,4,4,5,3,3,2,2,4,4,4,2,3,2,2,4,5,2,4,3,1,2,1,5,2,4,2,4,4,2,3,5,1,4,4,2,2,3,5
"Poland",1996,2,7,1,4,2,1,5,0,2,NA,36.5,36.6,36.4,52.25,55,-3,9,1,2,1,NA,4,4,4,2,3,3,5,5,2,1,2,8,2,1,1,1,1,NA,2,"Plan biznesowy",NA,NA,NA,NA,3,NA,NA,NA,NA,3,2,2,3,4,3,1,4,2,3,3,2,2,4,4,5,3,2,3,3,4,2,4,4,4,3,4,3,3,2,3,4,4,3,4,4,4,4,4,4,4,2,2,2,3,3,4,3,4,1,2,7,5,6,2,2,2,4,2,3,4,2,5,5,2,6,2,2,1,2,2,3,2,1,1,1,4,3,4,2,1,2,2,3,3,3,3,3,3,3,4,4,3,5,4,4,3,3,3,4,3,3,3,4,4,4,3,4,3,4,2,4,1,2,2,4,3,5,3,2,6,5,4,4,3,4,3,2,2,3,4,4,3,2,3,3,4,3,4,4,3,4,3,4,4,4,3,5,3,2,4,2,2,4,3,2,3,3,3,3,2,3,3,4,4,3,2,3,3,4,4,4,3,4,5,3,4,3,4
"Serbia",1996,1,6,1,3,2,1,3,0,1,10,36.5,36.5,36.5,44.818603515625,56,6,6,1,2,1,NA,4,3,5,NA,1,NA,7,5,2,1,2,8,1,NA,NA,4,1,NA,1,NA,NA,NA,NA,NA,NA,NA,NA,NA,NA,2,1,1,2,1,5,5,1,1,3,3,2,4,3,4,3,3,3,2,3,3,3,3,4,5,3,3,4,5,4,4,4,2,5,3,5,3,3,4,4,4,4,4,4,2,3,4,8,5,8,5,8,8,4,8,5,4,6,4,7,8,7,8,5,4,7,NA,7,4,4,8,8,3,3,5,4,6,4,4,7,6,NA,3,5,4,4,4,3,5,4,5,5,5,6,6,6,6,5,5,3,2,1,2,3,2,2,1,1,1,2,1,1,1,3,2,4,4,6,1,3,4,4,1,4,1,4,1,4,3,5,4,4,5,2,2,2,4,2,3,4,4,4,1,5,4,3,3,4,2,1,5,5,1,2,2,3,4,5,2,5,1,2,4,2,4,3,1,5,5,2,2,2,4,3,3,3,4,4,4
"SMU",1996,2,6,1,4,2,1,0,0,2,NA,36.5,36.6,36.4,1.2931060791016,70,26,5,1,2,1,NA,2,2,5,NA,1,NA,8,1,2,1,2,8,1,NA,NA,3,1,NA,1,NA,NA,NA,NA,NA,NA,NA,NA,NA,NA,2,2,2,1,4,2,1,1,1,1,2,1,1,4,4,4,4,2,2,2,2,5,4,5,4,2,4,5,5,1,5,4,5,5,5,5,2,5,5,1,4,5,5,5,3,5,5,6,7,6,6,7,7,5,6,6,7,6,4,5,5,7,5,7,7,7,6,7,2,7,6,1,5,3,6,7,6,3,1,6,3,1,2,4,2,3,4,3,3,3,3,3,2,5,6,6,7,3,4,5,5,3,4,5,5,5,5,3,5,5,4,5,1,5,2,3,2,7,2,2,2,2,1,5,5,3,2,5,5,5,5,5,4,1,1,5,5,4,1,3,5,5,5,3,5,5,5,4,1,4,2,2,4,4,5,2,2,3,2,5,4,4,2,4,2,4,3,3,3,3,2,3,4,3,3,3,4,2,3
"Oslo",1996,2,7,2,4,2,1,NA,NA,2,NA,36.52,36.48,36.56,59.912704467773,98,3,4,1,2,1,NA,4,4,5,NA,3,1,6,6,2,1,2,8,3,1,2,4,1,NA,1,NA,NA,NA,NA,NA,NA,NA,NA,NA,NA,4,4,3,5,3,4,2,5,4,3,4,5,4,3,3,3,2,2,2,3,4,2,2,3,4,2,2,3,4,4,3,4,2,4,4,4,4,4,5,4,4,2,4,4,1,2,4,6,6,6,7,7,6,7,7,6,5,6,6,6,6,7,6,7,2,5,3,7,3,3,3,3,5,3,3,3,5,3,3,3,3,1,5,5,4,4,4,4,4,2,4,3,6,7,6,7,6,6,6,4,2,2,4,2,2,2,2,2,2,2,1,2,1,2,1,5,4,5,3,2,3,3,1,2,2,5,4,5,2,2,4,4,2,1,1,2,2,2,4,5,4,4,2,2,4,5,5,4,2,5,4,2,2,4,1,4,5,5,2,1,2,4,5,2,4,5,1,4,4,4,5,3,1,3,5,2,3,1,2
"Poland",1996,2,6,1,4,2,1,10,0,2,NA,36.535,36.59,36.48,52.25,55,-3,9,1,2,1,NA,4,2,5,1,4,1,3,2,2,4,2,6,2,1,1,1,1,NA,1,NA,NA,NA,NA,NA,NA,NA,NA,NA,NA,3,4,3,3,3,4,2,2,3,3,4,3,4,3,3,3,4,4,3,3,3,4,3,3,5,3,4,4,2,2,2,2,2,2,4,5,5,2,5,4,5,3,4,2,4,3,3,5,3,5,5,5,6,4,5,4,5,3,6,4,5,2,6,4,3,2,1,3,1,1,3,5,2,2,1,3,2,1,5,5,3,3,3,5,4,4,4,4,3,3,3,3,4,7,7,5,4,4,4,2,2,3,1,2,2,3,2,2,3,2,3,2,2,3,2,4,7,6,5,6,2,1,2,4,2,5,5,4,2,4,2,4,2,2,2,4,2,2,3,4,3,4,4,5,4,5,5,5,4,3,5,4,2,3,3,3,5,4,3,3,4,2,3,4,4,3,3,2,2,4,4,3,3,4,5,2,4,4,4
"Serbia",1996,2,7,2,2,2,1,20,0,2,NA,36.55,36.6,36.5,44,83,4,6,1,2,1,NA,4,2,5,NA,4,4,4,3,1,NA,2,8,1,NA,NA,1,2,4,1,NA,NA,NA,NA,NA,NA,NA,NA,NA,NA,4,2,4,3,4,3,2,3,3,3,3,3,4,3,4,5,1,3,3,4,3,3,4,4,4,2,4,2,2,2,2,2,2,2,2,2,4,3,4,2,4,2,2,2,2,2,4,5,5,4,8,5,5,3,4,5,4,5,4,3,5,5,5,8,4,3,4,4,NA,4,5,4,4,6,4,3,4,5,4,6,6,4,4,5,4,4,3,4,4,2,4,4,5,7,5,4,6,5,6,4,4,3,5,4,4,4,5,4,5,3,3,3,3,2,3,3,6,5,3,5,4,5,1,4,4,2,1,5,2,3,3,5,4,4,1,2,4,4,4,3,3,3,2,4,3,2,2,1,1,3,4,4,3,5,2,2,1,4,4,4,1,2,3,3,4,1,1,5,5,1,2,4,4,5,3,4,4,1,4
"METU",1996,1,6,2,5,2,1,NA,NA,2,NA,36.55,36.6,36.5,39.911697387695,64,2,3,2,2,1,NA,4,4,5,NA,8,8,8,8,2,1,2,8,1,NA,NA,1,1,NA,2,"Discord",NA,NA,NA,NA,3,NA,NA,NA,NA,5,4,3,5,2,4,5,3,4,5,4,3,4,2,2,2,2,2,2,2,2,2,1,1,3,2,1,2,2,4,2,2,1,2,1,3,2,2,2,1,2,1,1,1,3,2,2,6,3,2,2,6,2,3,2,5,2,5,2,4,6,2,5,1,2,2,5,2,2,3,2,2,2,2,5,2,6,3,2,3,2,2,3,5,5,5,5,5,5,5,5,5,3,6,6,6,4,4,5,2,2,2,2,2,2,2,2,3,2,2,2,1,4,4,1,4,3,2,1,2,3,1,4,3,4,4,4,2,4,3,3,3,2,2,4,4,1,4,4,5,4,4,4,2,3,4,4,5,5,3,3,4,1,1,1,2,3,5,2,2,2,4,3,4,4,3,2,5,2,2,2,4,4,3,2,4,2,1,2
"Serbia",1996,2,6,2,3,2,1,4,0,2,NA,36.55,36.5,36.6,44.818603515625,65,8,6,1,2,1,NA,3,3,5,NA,4,4,4,4,1,NA,2,5,1,NA,NA,3,1,NA,1,NA,NA,NA,NA,NA,NA,NA,NA,NA,NA,2,4,3,5,2,3,3,3,2,3,1,3,2,3,3,4,2,2,4,3,4,4,3,3,4,2,3,3,3,3,2,2,1,4,2,4,3,4,3,4,3,2,3,2,1,3,3,4,2,4,5,4,8,2,5,3,2,NA,2,8,2,2,4,4,2,5,NA,7,NA,5,3,3,NA,NA,6,4,5,6,5,6,6,3,3,4,4,3,4,5,5,4,5,5,6,5,4,4,5,6,6,5,4,2,4,3,3,4,5,3,4,2,2,3,2,3,2,4,4,6,3,4,4,4,1,1,2,5,4,3,4,3,3,2,2,3,3,3,2,2,4,5,4,4,3,3,3,3,2,2,1,2,2,4,2,3,2,1,3,4,2,2,3,3,2,4,4,3,2,2,4,4,3,4,2,3,3,2,2,3,1
"Serbia",1996,2,7,1,4,2,1,5,0,1,8,36.55,36.5,36.6,44.779205322266,53,6,6,1,2,1,NA,4,4,4,4,4,4,6,6,2,1,2,8,1,NA,NA,8,1,NA,1,NA,NA,NA,NA,NA,NA,NA,NA,NA,NA,4,3,3,4,4,2,4,3,3,4,3,3,4,3,3,3,2,3,2,2,3,3,3,3,4,2,3,3,4,3,3,4,4,2,3,4,4,4,3,4,3,3,4,3,2,2,3,2,2,2,3,3,2,2,3,NA,2,NA,2,2,3,2,4,2,2,2,1,1,NA,2,2,2,4,3,NA,NA,NA,NA,2,6,7,NA,NA,5,4,4,5,4,4,3,3,3,2,2,2,1,2,2,2,3,2,2,2,3,3,2,2,2,2,2,2,2,2,2,3,3,4,4,2,3,4,4,2,4,3,3,2,3,3,3,3,4,3,2,3,3,2,2,4,4,4,4,4,3,3,3,1,1,2,4,4,4,4,2,2,3,4,4,4,2,2,3,3,4,4,3,2,4,4,4,4,4,3,4,3,3,2,3,2
"Tsinghua",1996,1,4,2,3,2,1,28,0,2,0,36.55,36.5,36.6,30.580093383789,64,12,7,3,2,1,0,4,4,5,0,6,3,5,5,1,1,2,3,1,1,1,1,2,1,1,"Ñ§Ï°·Ö×é",NA,NA,NA,NA,3,NA,NA,NA,NA,3,4,2,4,2,4,1,3,4,4,4,2,5,2,2,2,2,2,2,4,2,2,2,2,5,2,3,3,4,4,4,2,2,3,4,4,2,2,2,3,2,2,3,2,1,2,2,6,3,6,5,5,5,5,6,5,5,4,5,5,6,3,5,5,3,6,1,3,2,2,2,5,2,2,2,1,5,1,3,2,3,2,2,4,4,5,4,4,4,4,3,4,5,3,3,5,5,6,6,1,3,3,2,2,4,4,2,4,2,2,1,4,2,2,2,3,4,5,4,4,4,5,3,3,3,4,3,3,3,3,3,4,2,1,3,3,3,3,3,4,3,2,3,4,4,3,3,4,3,3,4,3,2,4,3,2,4,4,4,4,2,3,4,3,4,3,3,4,3,3,3,4,2,4,3,4,4,2,3
"METU",1996,1,7,2,3,2,1,15,0,1,18,36.55,36.7,36.4,39.911697387695,70,3,3,2,2,1,NA,4,4,5,NA,2,1,6,5,1,NA,2,3,1,NA,NA,1,1,NA,1,NA,NA,NA,NA,NA,NA,NA,NA,NA,NA,3,2,2,3,2,3,4,3,1,1,4,2,4,3,4,3,2,3,3,4,4,2,4,3,4,4,3,5,4,4,4,3,2,3,3,4,3,4,3,3,4,2,2,1,2,3,4,6,5,6,6,7,7,6,7,6,5,6,5,4,2,2,6,2,2,4,3,6,4,7,4,4,5,4,3,4,3,2,6,2,2,2,4,4,2,4,4,3,2,1,2,3,4,6,5,6,6,5,4,4,5,4,4,4,4,4,4,2,5,2,2,2,3,4,3,4,6,3,3,2,2,3,2,2,5,5,2,3,3,2,2,5,4,1,3,4,2,4,4,4,2,4,4,5,2,4,4,4,2,3,4,2,2,4,2,2,2,2,1,5,2,3,2,4,4,2,3,4,4,3,3,2,2,5,4,4,2,2,3
"Serbia",1996,2,7,1,2,2,1,0,0,2,NA,36.55,36.5,36.6,43.927505493164,63,1,6,1,2,1,NA,4,2,1,NA,3,2,8,7,1,NA,2,7,1,NA,NA,1,1,NA,1,NA,NA,NA,NA,NA,NA,NA,NA,NA,NA,4,1,3,3,4,3,2,3,4,1,4,2,4,4,5,5,5,4,5,3,5,4,4,4,5,3,5,3,4,2,4,5,5,2,5,4,5,5,1,5,4,2,1,2,1,3,5,7,1,2,7,8,7,7,8,3,4,5,3,4,2,8,1,7,1,1,1,2,1,2,1,2,5,NA,1,1,1,NA,1,6,6,1,NA,5,4,5,4,5,5,4,5,5,7,7,7,7,7,7,7,5,4,2,5,5,4,4,2,3,5,5,4,1,1,1,1,5,7,6,6,6,6,5,1,4,4,2,1,5,5,4,5,5,4,3,1,1,5,3,3,5,4,2,2,1,3,4,4,4,4,4,4,4,4,5,4,4,1,3,4,3,1,4,3,5,4,2,1,5,4,5,5,5,2,5,5,2,4,1,5
"Poland",1996,2,5,2,4,2,1,7,6,2,NA,36.55,36.4,36.7,50.766693115234,72,0,9,1,2,1,NA,4,2,5,1,8,3,3,3,1,NA,2,8,3,1,8,3,2,1,1,NA,NA,NA,NA,NA,NA,NA,NA,NA,NA,2,3,4,5,5,5,1,2,2,1,3,3,4,5,3,3,3,4,3,3,3,1,4,4,3,5,1,3,4,3,3,3,5,5,4,4,4,3,3,3,3,4,3,3,2,3,2,6,7,6,7,6,7,5,7,7,5,3,1,1,1,7,7,7,1,1,7,7,2,6,7,3,7,2,7,7,7,6,3,7,7,7,7,5,5,5,5,5,5,5,5,5,7,7,7,7,7,7,7,3,1,1,1,1,3,3,1,1,2,1,2,1,1,1,1,5,8,7,6,8,8,8,1,5,4,4,3,5,5,5,5,5,3,1,1,1,3,2,2,1,5,5,5,4,1,4,4,3,5,4,4,5,4,1,5,2,1,5,1,5,1,1,5,5,2,1,1,4,5,4,4,4,3,4,4,4,4,4,4
"Tsinghua",1996,1,7,2,2,2,1,2,0,2,0,36.55,36.6,36.5,30.580093383789,72,14,7,3,2,1,0,4,4,5,0,4,4,3,3,1,1,1,5,3,1,2,1,2,1,1,"Ñ§Éú»á",NA,NA,NA,NA,5,NA,NA,NA,NA,3,3,4,5,5,4,2,4,4,4,4,3,3,2,3,3,2,2,2,2,2,3,3,3,4,2,4,4,4,3,4,5,4,5,4,3,2,4,3,4,2,2,4,2,2,3,4,3,2,3,5,7,3,2,2,4,3,3,2,4,5,4,4,5,2,5,2,3,3,2,3,2,3,2,2,2,5,2,2,2,2,3,4,4,5,4,4,5,5,4,4,4,3,2,3,6,5,4,5,2,4,4,3,2,3,4,3,3,3,3,3,2,2,4,3,3,3,4,2,2,2,2,2,3,2,4,2,4,2,3,5,4,2,1,3,4,4,2,4,4,4,3,2,4,4,4,4,5,4,3,4,3,2,3,2,4,3,4,4,2,2,4,2,4,3,2,2,4,2,4,3,2,1,3,2,3,4,3,3
"METU",1996,2,6,2,4,2,1,3,0,1,5,36.55,36.7,36.4,39.911697387695,64,6,3,2,3,1,NA,4,2,5,NA,4,1,8,8,1,NA,2,8,1,NA,NA,1,1,NA,1,NA,NA,NA,NA,NA,NA,NA,NA,NA,NA,3,3,3,5,2,2,4,1,3,3,1,3,4,3,3,3,3,3,2,3,2,3,4,4,4,4,3,5,5,5,5,4,5,5,3,5,5,4,5,5,4,4,2,5,3,4,5,5,3,4,5,4,3,5,5,5,4,5,2,5,4,2,5,5,2,4,5,5,5,6,5,5,5,6,3,3,5,4,5,5,5,2,5,4,4,4,3,3,4,3,2,2,6,6,6,7,7,5,4,4,4,3,4,3,4,2,4,3,4,4,2,2,2,3,1,4,3,5,2,3,4,3,2,2,4,5,2,3,3,4,3,5,5,2,5,5,4,4,3,4,4,4,4,3,4,4,4,5,3,3,4,2,1,4,2,2,4,4,2,2,2,2,2,4,2,4,3,3,4,4,4,4,3,4,4,3,4,1,4
"UCSB",1996,2,5,2,3,2,1,2,4,2,NA,36.55555556,36.61111111,36.5,34.50210571,84,7.222222222,5,1,2,1,NA,4,2,5,NA,4,2,6,6,1,NA,2,5,1,NA,NA,1,1,NA,2,"Support After Intimate Partner Abuse","n/a","n/a","n/a","n/a",6,0,0,0,0,2,1,3,4,2,2,2,1,2,2,2,3,4,3,2,4,2,4,4,2,4,2,4,4,5,4,4,2,4,1,4,2,1,2,4,4,4,4,4,4,4,1,2,2,2,3,4,3,2,2,2,4,2,3,2,5,2,2,2,2,2,2,2,2,1,3,3,4,5,2,2,3,3,6,3,2,5,3,3,5,5,3,3,5,5,4,5,5,5,3,3,4,6,6,5,6,5,5,5,4,4,1,4,4,2,4,4,4,4,3,3,1,2,4,3,3,2,2,2,2,4,2,4,2,2,4,1,2,2,4,4,5,2,2,4,5,4,4,2,2,1,3,4,4,4,2,3,3,3,4,2,2,2,2,2,1,3,4,2,2,2,4,4,2,4,2,4,4,4,2,2,4,2,2,2,4,2,2,4
"UCSB",1996,1,1,2,5,2,1,2,0,1,0,36.55555556,36.44444444,36.66666667,34.4329071,55,10.55555556,5,1,2,1,NA,4,2,5,NA,4,2,4,4,1,NA,2,8,1,NA,NA,1,1,NA,1,NA,NA,NA,NA,NA,NA,NA,NA,NA,NA,1,1,2,3,2,2,1,1,2,3,2,1,2,2,2,2,2,4,2,2,2,2,3,1,4,2,2,4,5,4,5,4,4,5,4,3,5,4,2,4,1,1,4,2,2,3,2,5,3,2,4,3,6,2,3,2,2,3,1,2,1,1,2,2,1,3,1,5,2,6,3,5,3,3,2,2,3,2,2,3,3,2,1,5,5,4,5,5,5,2,4,4,3,7,6,5,6,5,2,1,3,1,2,1,2,3,3,4,1,2,2,2,1,5,4,2,2,5,2,2,3,3,4,5,5,3,1,1,5,5,1,5,4,2,5,4,2,4,4,5,2,2,4,3,5,4,3,4,3,4,5,4,2,1,2,2,4,4,5,5,4,5,3,4,4,1,4,4,4,1,1,3,4,5,2,4,1,1,3
"Tsinghua",1996,1,6,2,3,2,1,14,0,2,0,36.575,36.65,36.5,30.580093383789,74,16,7,3,2,1,0,2,1,5,0,1,0,5,3,1,1,2,8,1,1,1,3,2,1,1,"Ñ§Éú»á",NA,NA,NA,NA,1,NA,NA,NA,NA,1,3,2,2,2,4,2,2,2,1,2,2,2,4,4,3,2,3,2,4,3,3,4,2,3,4,3,4,5,2,5,5,4,4,4,5,4,5,5,5,4,4,3,5,3,4,4,4,4,4,4,4,5,4,4,4,4,2,4,4,6,5,4,5,4,4,4,4,4,4,4,4,4,4,4,4,4,4,4,4,4,4,4,3,3,3,2,4,3,4,3,3,6,2,2,7,6,7,7,4,4,5,4,4,5,5,5,2,4,5,1,4,1,3,2,3,3,2,2,2,1,1,2,2,4,4,2,2,2,2,3,5,3,2,4,5,3,4,4,2,1,1,4,5,1,1,1,2,2,2,2,2,4,4,5,4,3,5,4,4,2,4,3,5,4,1,1,3,3,1,5,4,3,3,2,3,3,1,3
"UCSB",1996,2,7,2,3,2,1,2,0,2,NA,36.58333333,36.72222222,36.44444444,33.65789795,65,20.55555556,5,1,2,1,NA,4,4,5,NA,2,2,1,1,1,NA,2,1,3,1,1,1,1,NA,1,NA,NA,NA,NA,NA,NA,NA,NA,NA,NA,4,2,3,4,4,4,2,3,2,2,3,3,4,4,3,3,3,3,3,3,2,3,3,2,4,3,3,3,4,2,4,2,2,2,4,3,4,3,4,4,4,2,2,2,3,3,4,4,4,4,4,4,4,4,4,4,4,4,4,4,4,4,4,4,4,4,4,4,4,4,4,4,4,4,4,4,4,4,4,4,4,4,4,5,5,5,5,5,5,5,5,5,4,3,3,3,4,4,4,4,4,3,4,4,4,4,4,4,4,4,2,2,3,2,3,4,5,5,5,5,5,5,2,3,2,4,2,5,3,3,4,4,3,1,2,2,4,2,3,4,1,3,4,4,3,4,4,3,4,3,3,4,3,4,3,1,2,4,2,2,2,4,4,3,4,4,1,3,4,2,2,3,3,4,2,4,3,2,4
"VCU",1996,2,4,2,4,2,1,5,0,2,NA,36.58333333,36.61111111,36.55555556,37.553802490234,80,15,5,1,2,1,NA,4,1,5,NA,5,1,5,5,1,NA,2,8,3,1,8,6,2,8,2,"student ambassadors","orientation staff","psych lab",NA,NA,7,7,7,NA,NA,3,5,5,4,4,4,5,3,4,3,5,5,4,2,3,4,2,2,2,2,2,2,2,3,5,2,2,4,4,3,4,4,2,2,4,4,5,5,2,5,4,2,3,3,5,2,4,4,5,4,7,4,6,4,5,4,3,5,5,4,5,5,4,2,3,5,4,7,4,5,4,2,4,4,5,5,5,3,3,7,7,4,4,4,3,4,4,3,2,4,4,4,4,5,3,5,2,3,3,2,2,1,2,2,2,3,2,4,2,2,1,2,4,4,3,3,4,1,1,2,3,2,2,2,2,4,3,4,2,3,4,4,2,1,1,3,3,2,5,4,4,3,4,5,4,5,4,4,3,2,3,3,2,4,3,2,5,4,3,2,2,2,4,3,2,5,2,2,4,4,4,3,4,5,2,2,4,2,2
"Poland",1996,2,7,1,4,2,1,NA,NA,2,NA,36.6,36.6,36.6,52.233306884766,83,2,9,1,2,1,NA,4,4,5,1,8,4,4,3,2,5,2,8,6,1,8,2,1,NA,1,NA,NA,NA,NA,NA,NA,NA,NA,NA,NA,5,4,4,4,3,4,3,4,3,4,5,4,4,2,3,3,5,4,4,4,2,4,3,3,5,5,2,2,2,1,2,1,1,1,1,3,4,4,4,3,4,1,1,1,1,2,4,6,2,3,5,5,4,5,2,3,2,6,3,2,2,1,5,2,2,1,1,6,1,1,2,1,2,2,1,2,1,2,2,6,6,2,3,5,5,5,5,5,5,4,5,4,4,4,4,4,4,4,4,2,2,1,2,2,2,5,1,1,2,2,3,1,1,2,1,4,5,5,3,3,5,5,2,4,3,5,3,2,2,4,2,5,3,2,4,4,4,3,2,2,2,5,4,4,4,5,5,5,5,5,5,5,1,1,1,1,1,4,4,1,1,3,2,4,3,1,1,4,2,2,3,4,4,5,5,5,4,4,2
"Portugal",1996,2,3,2,3,2,1,2,0,2,NA,36.6,36.6,36.6,44.818603515625,73,13,8,1,2,1,NA,4,2,5,1,3,4,6,3,2,8,2,8,1,NA,NA,1,1,NA,2,"Grupo de Jovens",NA,NA,NA,NA,7,NA,NA,NA,NA,3,2,3,4,3,4,4,3,2,3,3,2,2,3,4,4,3,3,3,3,3,3,2,4,4,3,3,2,3,2,2,1,1,2,2,2,3,2,4,4,3,3,2,2,2,2,4,3,5,3,5,3,3,6,6,5,2,2,2,2,2,2,2,2,2,6,3,3,3,3,6,3,2,2,2,2,6,2,5,3,6,5,1,3,4,4,4,4,4,3,4,4,6,4,5,4,4,4,4,2,5,1,4,5,2,5,2,5,5,5,1,2,1,3,3,5,6,5,6,6,3,5,3,3,3,4,4,3,3,4,4,3,2,3,4,4,5,4,3,3,4,3,4,3,3,3,3,2,2,3,4,2,3,3,3,4,3,4,3,4,3,3,4,3,4,2,2,3,4,3,3,4,3,3,3,4,3,2,3
"Serbia",1996,2,7,2,4,2,1,2,1,1,5,36.6,36.5,36.7,38.716705322266,44,12,6,1,2,1,NA,4,4,5,NA,5,3,4,3,1,NA,2,8,1,NA,NA,1,1,NA,1,NA,NA,NA,NA,NA,NA,NA,NA,NA,NA,4,3,4,4,2,3,4,3,4,4,4,3,4,3,3,4,3,2,2,3,3,3,2,4,4,2,3,2,2,1,1,1,2,3,1,4,4,4,2,4,1,1,1,1,1,3,4,2,2,2,2,3,5,3,3,NA,2,3,8,2,2,5,5,5,2,3,3,2,NA,2,5,2,NA,NA,NA,NA,5,3,3,7,6,NA,3,5,4,4,5,5,4,2,1,4,7,6,2,6,6,5,6,1,1,1,2,1,1,1,1,1,1,2,3,1,1,2,3,5,7,6,3,5,3,5,4,2,2,5,4,4,2,2,4,2,2,2,3,2,4,4,5,5,5,5,4,4,5,4,1,2,1,1,2,2,2,2,1,2,1,4,2,4,2,2,3,4,3,1,1,5,5,5,5,5,2,5,4,2,4,3,4
"Serbia",1996,2,7,2,3,2,1,0,0,2,NA,36.6,36.5,36.7,44.818603515625,75,4,6,1,2,1,NA,4,4,5,NA,3,3,4,4,1,NA,2,8,1,NA,NA,3,1,NA,1,NA,NA,NA,NA,NA,NA,NA,NA,NA,NA,3,3,4,4,4,3,5,3,2,3,3,4,3,3,4,4,3,3,3,3,4,3,3,3,4,2,3,2,3,1,2,4,1,2,2,2,4,3,4,2,3,2,2,2,2,1,4,3,4,3,5,4,5,5,5,3,2,3,4,4,2,2,2,4,2,3,3,8,NA,3,3,4,5,3,3,NA,3,3,3,6,6,NA,NA,4,5,4,5,5,4,4,3,4,3,4,3,3,5,4,4,3,3,2,4,2,2,3,4,2,4,2,2,3,2,2,2,3,3,6,1,5,4,3,1,2,1,4,2,3,2,2,3,5,2,2,2,2,3,3,4,4,3,4,3,3,4,4,1,1,1,3,3,4,2,4,2,2,3,3,3,1,4,2,2,4,3,2,1,3,4,3,3,3,2,4,4,3,3,1,4
"Kassel",1996,2,5,1,4,2,1,0,0,2,NA,36.6,36.4,36.8,51.717102050781,88,1,1,1,2,1,NA,4,4,4,1,3,3,6,6,2,1,2,8,1,NA,NA,1,1,NA,1,NA,NA,NA,NA,NA,NA,NA,NA,NA,NA,3,3,3,4,2,3,3,2,3,4,4,4,4,3,3,3,2,2,2,2,3,3,3,3,4,2,2,3,4,2,3,2,1,1,1,4,4,3,2,3,2,1,3,1,2,2,2,3,1,1,2,2,1,2,1,3,1,6,5,1,1,1,1,1,2,1,1,2,1,7,1,1,1,7,1,1,1,1,1,5,5,1,1,4,4,4,4,3,4,2,4,4,5,4,5,4,4,3,3,2,2,2,2,3,2,2,2,2,2,4,2,3,2,3,3,4,6,7,4,6,5,6,2,2,1,5,4,4,2,3,3,2,3,1,2,3,3,2,3,2,2,4,4,3,4,4,3,4,3,3,3,3,2,2,2,2,4,4,3,1,2,3,3,3,4,2,2,4,4,3,3,2,2,4,3,2,3,4,2
"METU",1996,2,7,2,2,2,1,6,0,2,NA,36.6,36.6,36.6,39.911697387695,64,2,3,2,2,1,NA,4,4,5,NA,2,1,3,3,1,NA,2,8,1,NA,NA,3,1,NA,1,NA,NA,NA,NA,NA,NA,NA,NA,NA,NA,3,3,3,4,4,4,2,2,1,4,2,2,5,3,3,5,4,4,4,3,3,3,3,4,5,3,4,2,4,2,2,2,1,3,1,4,4,3,4,4,3,1,1,2,1,2,3,6,6,5,6,7,6,5,6,7,3,7,2,2,2,6,5,6,5,4,6,6,7,6,3,7,7,6,2,3,5,5,6,7,6,2,4,5,4,4,5,4,5,5,5,4,5,5,6,6,7,5,5,2,3,1,2,3,2,3,3,3,2,2,2,3,3,1,2,5,6,7,5,4,5,6,3,2,4,4,1,1,2,2,1,4,5,1,4,3,3,4,2,4,1,4,4,5,3,1,2,3,2,2,4,3,2,2,1,2,4,4,5,4,2,4,3,4,3,1,3,2,4,1,1,4,2,2,3,1,2,1,1
"Bamberg",1996,2,6,1,4,2,1,1,0,2,NA,36.6,36.5,36.7,48.776000976562,72,6,1,1,2,1,NA,4,4,4,4,3,3,6,4,1,NA,2,8,1,NA,NA,2,1,NA,1,NA,NA,NA,NA,NA,NA,NA,NA,NA,NA,3,2,4,4,3,4,5,4,3,4,4,3,3,2,3,3,2,2,3,2,3,2,2,3,3,2,2,2,4,3,4,4,1,2,3,4,3,3,2,3,2,1,1,1,1,2,2,2,2,2,3,4,2,3,4,1,2,2,2,2,1,2,2,2,2,3,5,5,1,3,1,1,1,1,2,2,2,2,1,5,6,2,3,4,3,4,3,2,3,2,4,4,2,4,3,3,4,2,2,2,3,1,4,1,1,2,2,2,2,2,2,2,2,4,2,5,5,6,4,4,2,2,2,2,2,5,4,4,2,3,3,2,4,2,1,2,2,1,4,4,2,3,3,5,4,5,4,4,2,2,3,2,2,4,1,2,5,3,4,2,3,4,4,3,3,2,2,2,4,2,3,4,4,3,4,4,4,1,3
"Serbia",1996,2,1,2,3,2,1,NA,NA,1,10,36.6,36.8,36.4,44.818603515625,95,6,6,1,2,1,NA,4,4,5,NA,2,2,6,6,1,NA,2,8,1,NA,NA,1,1,NA,1,NA,NA,NA,NA,NA,NA,NA,NA,NA,NA,4,1,3,5,4,4,2,2,4,3,3,3,5,3,4,5,1,2,3,2,4,2,2,4,5,2,4,3,4,2,4,4,4,1,3,4,4,4,4,4,2,2,3,2,2,2,4,3,2,4,3,5,4,2,5,3,2,NA,2,2,2,2,2,8,2,3,NA,7,NA,8,2,4,3,NA,3,NA,3,NA,5,6,7,4,NA,4,3,3,5,4,4,3,3,3,3,2,3,3,2,3,3,2,3,1,5,2,1,2,3,3,2,3,1,1,2,1,1,5,6,3,1,2,4,6,4,3,3,4,2,2,3,4,4,4,2,4,4,4,4,1,4,2,4,4,4,4,4,2,4,3,2,4,5,5,2,3,2,4,4,4,4,2,1,3,3,2,3,1,4,3,4,1,1,4,3,2,2,2,2,2,4
"SMU",1996,2,7,1,3,2,1,0,0,2,NA,36.6,36.6,36.6,1.2931060791016,70,26,5,1,2,1,NA,4,4,5,NA,3,3,7,7,1,NA,2,8,1,NA,NA,2,1,NA,1,NA,NA,NA,NA,NA,NA,NA,NA,NA,NA,3,2,3,3,3,4,2,2,3,2,3,4,4,4,5,4,3,2,2,2,3,3,3,4,4,2,3,4,4,3,4,4,4,4,3,4,4,4,4,4,3,3,3,3,3,3,4,4,5,2,4,5,4,3,3,4,2,5,3,2,2,4,5,5,2,4,3,3,2,2,3,3,3,3,3,3,3,4,3,3,3,3,3,4,4,4,4,4,4,4,4,4,5,6,6,6,6,6,6,4,4,2,4,4,3,4,4,4,3,4,3,4,2,4,2,4,5,7,5,5,5,5,2,4,4,3,2,4,3,4,4,4,4,1,3,4,3,4,2,4,3,3,3,4,4,4,3,4,4,4,4,4,2,2,4,2,2,3,4,2,2,4,4,3,4,4,3,4,4,4,4,4,3,4,3,4,3,2,4
"UCSB",1996,2,6,1,3,2,1,0,0,2,NA,36.61111111,36.61111111,36.61111111,34.0184021,84,7.222222222,5,1,2,1,NA,4,4,4,1,4,3,5,4,2,1,2,2,1,NA,NA,1,1,NA,1,NA,NA,NA,NA,NA,NA,NA,NA,NA,NA,4,4,5,5,3,4,3,2,4,5,5,3,5,3,4,3,2,2,2,3,2,3,3,3,4,3,2,2,2,2,4,3,2,4,4,5,4,4,3,4,3,2,4,4,2,2,3,4,4,4,5,5,4,3,5,4,3,4,5,4,3,5,3,4,3,5,4,4,3,5,4,5,4,4,3,3,4,2,4,3,3,4,4,4,4,4,4,4,4,4,4,4,5,5,5,5,6,6,5,3,4,2,3,2,2,4,4,4,3,3,2,3,3,4,2,3,2,5,3,3,2,3,2,3,4,4,2,4,3,2,4,5,5,2,4,4,3,4,4,2,2,3,4,4,4,4,4,4,4,2,2,2,2,2,3,2,4,4,4,4,2,4,4,4,3,3,4,4,4,4,3,4,4,4,2,4,4,3,3
"UCSB",1996,2,7,2,3,2,2,0,0,2,NA,36.63888889,36.16666667,37.11111111,34.4329071,69,8.333333333,5,1,2,1,NA,4,2,5,NA,2,2,4,4,1,NA,2,7,1,NA,NA,1,1,NA,1,NA,NA,NA,NA,NA,NA,NA,NA,NA,NA,4,3,3,4,4,4,2,3,3,2,4,4,4,3,3,5,2,2,2,3,4,1,3,3,5,4,5,4,4,3,3,4,3,4,4,4,2,2,2,2,2,2,3,2,2,4,2,2,2,4,5,2,4,4,5,2,4,4,4,4,2,4,4,5,2,5,4,6,5,5,6,4,5,4,4,3,6,4,5,4,4,4,4,4,4,4,3,4,4,4,4,4,4,5,4,4,5,5,5,3,4,2,3,3,3,3,4,4,3,3,2,3,2,3,2,3,3,3,2,2,4,2,2,4,4,4,2,2,2,2,3,4,4,2,4,4,3,4,4,3,2,3,4,4,4,3,2,3,4,3,3,3,3,2,3,2,4,3,4,3,2,4,3,2,3,2,4,3,4,2,2,2,4,3,2,3,2,2,2
"Poland",1996,2,7,1,4,2,1,6,4,2,NA,36.65,36.5,36.8,54.360794067383,78,-3,9,1,1,1,NA,4,4,4,2,6,3,5,5,2,1,2,8,2,1,1,2,2,2,1,NA,NA,NA,NA,NA,NA,NA,NA,NA,NA,4,4,4,4,5,4,2,2,3,3,4,4,4,2,3,4,5,2,4,4,3,3,3,3,4,4,3,1,1,1,1,1,4,1,1,2,1,2,1,1,1,1,1,1,1,1,1,6,5,1,1,4,5,1,1,4,1,4,1,1,1,1,5,6,1,1,3,5,1,2,2,1,3,1,1,1,1,2,1,5,4,2,2,4,4,4,4,4,4,3,4,4,7,6,6,5,4,5,4,4,3,4,4,2,4,4,3,4,4,4,2,3,1,3,2,3,4,2,3,4,4,1,3,4,4,4,2,2,2,2,4,4,4,1,4,4,3,4,3,1,2,4,4,4,3,5,4,5,3,2,4,3,1,2,1,1,1,4,4,3,2,2,4,3,4,2,2,3,4,3,3,3,2,3,4,4,2,2,4
"Serbia",1996,1,7,2,4,2,1,0,0,2,NA,36.65,36.6,36.7,44.818603515625,45,12,6,1,2,1,NA,4,4,5,NA,8,3,8,6,1,NA,2,8,1,NA,NA,6,1,NA,1,NA,NA,NA,NA,NA,NA,NA,NA,NA,NA,4,3,5,2,3,4,4,4,4,3,4,4,4,2,2,3,2,2,2,3,2,3,2,3,4,1,2,2,2,2,2,2,1,2,2,2,4,3,4,3,4,2,2,2,2,2,4,3,3,5,8,8,5,2,4,4,2,3,4,5,5,1,4,2,2,3,3,5,NA,2,2,2,3,3,3,NA,5,3,4,6,5,NA,4,4,4,3,5,4,3,4,3,4,3,5,5,4,4,3,4,3,3,2,2,3,3,4,2,2,4,2,3,3,4,3,3,4,6,3,2,3,4,4,4,2,3,4,2,2,2,3,2,4,3,4,3,3,2,4,3,4,4,4,5,4,3,5,2,2,2,3,5,5,3,4,2,2,1,3,3,2,2,3,4,4,4,3,4,4,4,3,4,4,3,4,3,4,3,4,2
"Poland",1996,2,7,1,3,2,1,5,34,2,NA,36.65,36.6,36.7,54.474502563477,85,0,9,1,2,1,NA,4,4,4,4,3,3,2,2,2,1,2,5,2,1,1,1,1,NA,1,NA,NA,NA,NA,NA,NA,NA,NA,NA,NA,3,2,3,5,5,4,1,5,2,4,4,1,4,3,5,5,4,2,3,3,3,3,4,5,5,5,4,2,3,2,3,3,2,2,2,4,4,4,4,4,4,2,2,2,2,2,4,6,6,1,2,3,6,3,2,5,1,3,2,1,2,5,6,5,1,1,1,2,1,1,1,2,1,7,1,1,1,1,2,4,4,1,1,4,4,4,3,4,3,2,3,4,6,5,5,3,5,4,3,2,2,4,2,2,5,4,2,2,4,2,3,1,2,2,2,4,5,6,4,6,7,7,1,3,1,5,4,4,2,2,5,4,2,1,3,4,5,2,4,4,3,5,4,4,4,5,3,5,3,2,5,3,1,3,1,2,2,4,5,2,2,3,4,5,2,3,2,4,4,5,5,5,2,5,4,4,4,2,4
"Oslo",1996,2,4,1,4,2,1,NA,NA,2,NA,36.65,36.6,36.7,59.912704467773,84,-3,4,1,1,1,NA,4,4,4,1,1,NA,2,1,1,NA,2,4,3,1,1,1,1,NA,1,NA,NA,NA,NA,NA,NA,NA,NA,NA,NA,3,1,3,3,5,2,3,4,5,4,4,4,5,4,3,4,4,3,4,4,4,2,3,4,5,4,3,3,4,4,2,4,2,2,3,2,5,3,2,3,2,2,4,4,1,4,3,2,1,1,6,5,3,7,2,7,3,2,6,1,1,1,7,6,3,1,1,5,1,1,1,1,1,1,2,1,2,2,3,1,2,1,1,4,5,3,4,5,5,4,5,5,4,3,7,6,5,4,6,2,3,4,1,2,3,1,2,3,4,2,2,5,3,4,3,5,5,6,2,2,3,2,1,5,1,5,3,4,3,2,4,3,1,1,1,4,5,2,5,1,2,2,3,1,4,5,4,5,5,5,5,5,1,2,1,2,2,4,3,2,1,3,4,4,4,5,4,4,3,4,2,4,2,3,4,2,4,2,5
"Serbia",1996,2,7,2,3,2,1,3,0,2,NA,36.65,36.6,36.7,44.818603515625,45,12,6,1,2,1,NA,4,4,5,NA,1,NA,8,8,1,NA,2,8,1,NA,NA,2,1,NA,1,NA,NA,NA,NA,NA,NA,NA,NA,NA,NA,4,3,2,2,2,3,2,2,3,3,2,3,4,3,3,3,3,2,2,3,2,3,4,3,4,3,2,3,3,2,4,3,2,2,3,5,2,4,4,4,3,3,2,4,3,2,4,5,5,4,5,8,3,8,5,3,3,NA,7,4,2,5,3,5,3,5,NA,5,NA,2,3,5,NA,3,NA,1,3,NA,8,5,5,1,NA,3,3,3,3,4,2,2,3,3,3,3,3,2,4,3,3,4,4,1,3,2,3,4,3,3,2,2,1,2,2,2,2,3,4,4,2,1,2,4,4,4,5,2,1,3,1,1,3,5,5,4,3,2,3,3,3,4,4,4,2,4,3,3,2,3,4,5,5,2,5,4,2,3,4,3,2,3,4,2,2,4,3,3,2,5,3,2,3,4,2,3,4,4,2,3,4
"Tsinghua",1996,2,7,2,2,2,1,8,0,2,0,36.65,36.6,36.7,30.580093383789,64,12,7,3,2,1,0,4,2,5,0,1,0,7,4,1,1,2,3,3,1,1,1,2,1,1,"õÌÈ­µÀ","ÇÞÊÒ",NA,NA,NA,5,4,0,0,0,3,3,2,3,3,4,2,3,2,3,3,2,3,3,3,2,3,4,3,3,3,4,5,2,2,3,1,3,4,2,4,3,3,2,4,4,3,3,3,3,3,3,3,2,2,3,3,3,4,4,4,4,3,4,5,2,5,2,4,4,3,4,3,4,3,5,4,6,5,4,5,5,3,5,4,2,6,4,5,4,5,4,4,4,4,3,4,4,2,3,3,3,3,3,3,4,4,4,4,2,3,3,3,2,2,4,3,3,3,2,2,4,2,3,2,4,4,4,2,2,1,3,3,3,3,4,2,2,2,3,3,4,3,2,2,4,4,2,2,4,2,2,3,4,3,2,2,4,4,3,4,4,2,2,3,2,2,2,2,3,2,4,3,4,3,2,3,4,3,3,2,2,2,3,3,3,3,3,2
"METU",1996,2,7,1,5,2,1,1,0,2,NA,36.65,36.6,36.7,39.911697387695,72,8,3,2,2,1,NA,4,2,4,1,4,2,5,5,1,NA,2,8,1,NA,NA,1,1,NA,1,NA,NA,NA,NA,NA,NA,NA,NA,NA,NA,3,4,4,5,2,5,2,1,2,4,4,2,5,4,4,3,3,2,3,3,3,4,3,5,4,3,4,5,4,5,5,4,4,5,4,5,4,4,4,4,4,2,3,3,4,4,4,6,2,2,5,6,6,5,6,5,2,6,2,4,1,1,5,2,1,2,1,2,2,3,2,5,3,2,2,1,1,1,5,2,2,1,2,3,2,3,3,3,1,1,1,1,6,7,7,7,7,6,7,1,2,1,1,2,3,2,3,1,2,2,3,3,1,2,1,5,7,7,3,5,5,4,1,2,4,5,4,5,3,4,4,5,5,4,2,5,5,3,4,5,2,5,3,5,4,4,4,4,2,2,4,2,1,3,4,2,5,5,4,3,3,4,5,2,4,5,1,3,3,5,3,5,2,4,4,4,4,2,5
"Kassel",1996,1,6,1,2,2,1,1,0,1,2,36.665,36.62,36.71,51.287796020508,77,5,1,1,1,1,NA,4,4,4,2,4,4,6,4,2,1,2,8,1,NA,NA,1,1,NA,2,"Sportverein",NA,NA,NA,NA,5,NA,NA,NA,NA,4,3,5,4,2,3,4,4,2,4,4,4,4,2,3,4,2,3,2,2,3,2,2,3,3,3,2,3,2,1,2,1,1,1,1,2,4,3,2,3,1,1,2,2,2,3,3,3,3,2,3,2,4,5,4,5,2,2,3,1,2,4,2,3,1,4,2,5,2,3,2,3,1,1,3,2,3,4,1,3,3,3,2,4,4,4,4,3,2,3,3,3,3,4,4,5,5,3,3,2,3,2,2,2,2,1,1,1,2,4,1,1,2,4,2,4,5,5,2,3,4,2,3,3,4,4,2,3,2,3,3,4,3,2,3,4,4,2,1,2,3,4,2,4,3,4,3,4,2,2,2,1,1,3,3,2,1,4,2,4,3,2,3,4,2,2,2,4,3,2,4,4,2,3,1,4,4,1,1
"Kassel",1996,2,7,1,3,2,1,3,2,1,2,36.665,36.82,36.51,51.36669921875,65,-2,1,1,1,1,NA,4,2,4,1,7,3,8,4,2,1,2,8,3,1,3,4,1,NA,1,NA,NA,NA,NA,NA,NA,NA,NA,NA,NA,3,3,3,3,3,3,1,3,2,4,3,4,4,3,3,4,2,2,3,3,3,3,2,4,4,2,3,1,3,1,3,1,1,1,2,2,3,4,3,4,2,1,1,1,1,2,3,2,4,2,1,1,3,1,2,6,2,6,2,2,1,2,2,5,1,5,5,5,5,4,5,4,3,3,3,3,3,3,3,3,6,2,2,4,4,5,5,5,5,2,5,5,6,5,6,5,5,5,5,3,3,1,4,2,2,2,2,4,2,3,2,2,2,4,3,4,5,4,3,3,4,4,2,4,3,5,3,5,5,3,5,5,4,1,3,5,3,2,2,3,2,4,3,5,4,5,4,4,2,3,4,3,2,2,2,1,4,4,5,1,2,4,4,4,4,4,1,4,4,3,2,4,1,5,3,2,3,3,2
"Serbia",1996,2,7,1,2,2,1,0,0,2,NA,36.7,36.7,36.7,44.818603515625,45,12,6,1,2,1,NA,4,4,5,NA,3,3,4,4,1,NA,2,8,1,NA,NA,1,2,8,2,"klub pedagoga","trkacka mreza","joga","crtanje","debata",10,12,4,7,20,5,5,4,5,5,5,2,5,5,5,5,5,3,2,2,3,3,2,1,2,2,2,2,1,3,1,1,1,1,1,1,3,1,4,2,2,1,3,1,4,1,1,1,1,1,1,1,1,1,1,1,4,1,1,1,4,1,7,1,1,1,1,4,1,1,4,1,4,1,1,1,5,4,NA,4,NA,NA,NA,1,7,7,1,1,4,4,4,4,4,1,1,1,1,4,1,1,1,5,5,6,1,1,5,2,1,1,2,1,2,3,1,3,3,1,2,1,5,7,4,4,4,4,4,5,5,5,5,1,1,2,5,1,5,5,5,1,1,1,5,3,5,5,5,5,1,4,5,1,1,1,3,5,1,3,3,2,4,4,3,1,5,3,1,3,4,3,3,3,5,5,2,2,2,4,4,1,2,2,2,4
"Serbia",1996,2,7,2,4,2,1,3,0,2,NA,36.7,36.7,36.7,44.818603515625,65,8,6,1,2,1,NA,4,2,5,NA,5,4,4,4,2,1,2,5,1,NA,NA,3,1,NA,1,NA,NA,NA,NA,NA,NA,NA,NA,NA,NA,5,4,1,5,5,5,4,4,4,4,5,5,4,2,2,3,2,2,2,3,2,2,2,3,5,2,2,2,3,2,2,2,2,1,2,4,2,2,1,1,1,1,1,1,1,2,2,8,4,8,5,2,2,1,2,4,2,NA,2,2,2,2,3,2,2,3,NA,1,NA,2,2,2,6,3,NA,NA,NA,NA,2,7,6,3,5,4,4,4,5,5,4,3,4,4,4,4,4,3,3,5,5,2,2,2,3,1,2,2,1,4,1,1,2,2,1,2,2,2,2,2,1,1,1,2,1,5,1,5,5,2,1,1,4,1,2,2,1,1,2,3,4,2,3,4,4,3,4,2,1,1,1,1,2,5,1,3,1,2,5,3,3,1,1,4,2,3,4,1,2,1,4,2,2,3,2,4,3,3,3,2,2
"Serbia",1996,2,7,1,5,2,1,1,0,2,NA,36.7,36.7,36.7,43.32470703125,47,8,6,1,2,1,NA,4,4,5,NA,6,6,6,6,1,NA,2,6,1,NA,NA,2,1,NA,1,NA,NA,NA,NA,NA,NA,NA,NA,NA,NA,5,5,3,5,4,5,5,4,2,4,5,4,5,2,3,2,2,2,1,1,2,2,2,4,3,2,2,2,4,4,4,2,2,2,1,4,4,5,4,4,2,2,4,1,2,1,4,1,1,2,2,3,1,1,8,7,1,7,1,1,1,2,1,2,1,8,NA,7,3,5,8,8,NA,NA,3,3,5,1,5,7,6,NA,NA,5,4,3,5,5,4,2,2,4,3,2,6,2,4,4,4,2,3,3,3,2,2,4,4,4,3,2,1,1,1,2,1,4,5,4,1,4,5,4,2,4,1,5,4,4,4,2,2,2,2,2,3,2,4,2,4,4,4,5,3,2,4,4,2,2,1,2,2,2,1,1,2,1,1,2,5,2,2,2,5,4,4,2,1,5,3,4,2,4,2,5,2,5,2,4,4
"Poland",1996,2,7,1,2,2,1,4,24,1,4,36.7,36.6,36.8,52.25,55,-3,9,1,2,1,NA,4,4,4,1,4,1,4,3,1,NA,2,4,2,1,1,1,1,NA,1,NA,NA,NA,NA,NA,NA,NA,NA,NA,NA,2,2,3,1,3,4,3,3,1,1,2,4,4,4,5,5,3,3,3,3,4,2,4,5,4,3,4,4,4,3,4,2,3,4,4,4,5,5,5,5,5,2,4,3,1,2,5,7,7,5,7,7,7,2,5,4,1,1,2,4,6,7,6,7,2,4,3,3,2,7,2,4,3,4,6,2,3,3,5,5,5,5,3,3,3,3,4,3,2,2,4,3,6,6,6,5,6,5,5,4,4,4,4,5,3,5,4,3,3,5,2,3,2,4,3,5,7,6,3,3,2,2,4,5,2,4,1,2,1,2,2,5,5,5,5,5,3,2,5,5,2,2,5,5,1,2,2,5,3,3,4,4,3,4,1,1,3,4,5,1,1,5,5,4,5,1,1,2,4,1,2,3,5,1,4,2,2,1,5
"Serbia",1996,2,7,2,4,2,1,2,0,2,NA,36.7,36.6,36.8,44.818603515625,51,5,6,1,2,1,NA,4,2,5,NA,8,3,7,6,1,NA,2,8,1,NA,NA,2,1,NA,1,NA,NA,NA,NA,NA,NA,NA,NA,NA,NA,5,3,5,4,4,4,1,5,5,4,3,4,3,3,4,5,2,3,2,2,1,4,3,5,5,1,3,4,4,4,5,2,3,3,4,4,5,5,4,5,4,4,3,4,2,3,4,2,2,2,5,8,4,2,5,3,2,3,4,4,4,2,7,1,1,2,NA,8,NA,2,2,2,3,NA,NA,NA,NA,NA,1,6,7,NA,4,5,4,4,5,5,3,2,4,4,6,5,5,3,4,3,4,3,2,1,3,4,3,3,4,2,2,5,1,2,2,1,2,4,4,6,2,4,4,4,4,3,2,4,2,2,3,5,2,4,3,1,3,3,4,5,4,5,5,4,5,3,3,5,1,1,1,3,4,3,3,1,3,1,2,3,3,4,4,3,3,4,4,3,4,1,4,3,4,4,4,3,3,2,3,3,2
"Tsinghua",1996,2,7,2,3,2,1,8,0,2,0,36.7,36.7,36.7,39.928894042969,21,11,7,3,2,1,0,4,4,5,0,4,1,8,8,1,1,2,8,3,6,8,5,1,5,1,"ÍÅÎ¯Ö¾Ô¸×é","Í¼Êé¹ÝÖúÀí·Ö¶Ó",NA,NA,NA,3,7,NA,NA,NA,1,2,4,3,2,2,2,1,2,4,4,1,3,4,4,4,4,3,3,4,3,5,4,2,4,3,3,5,5,2,4,5,3,2,5,5,3,2,5,3,4,3,5,4,4,4,5,6,3,2,3,6,2,2,3,5,2,1,3,2,2,2,2,4,2,4,2,2,3,2,2,3,4,2,2,2,5,2,5,3,3,2,2,5,5,5,5,5,5,5,5,5,3,1,5,7,7,4,6,2,2,2,2,2,4,3,3,2,2,2,2,4,1,3,3,4,5,6,3,3,1,3,1,5,5,5,1,4,2,2,3,5,4,2,2,4,4,4,2,5,2,2,4,4,3,1,1,5,5,3,4,5,1,1,2,5,4,4,5,2,2,4,4,5,5,4,1,5,5,5,1,4,1,5,5,5,4,2,2
"SMU",1996,2,4,2,4,2,1,13,0,2,NA,36.7,36.7,36.7,1.2931060791016,71,26,5,1,2,1,NA,4,4,5,NA,8,4,8,7,1,NA,2,5,1,NA,NA,3,1,NA,1,NA,NA,NA,NA,NA,NA,NA,NA,NA,NA,2,2,2,2,2,3,2,2,2,2,4,4,3,5,5,5,2,1,2,2,5,3,2,5,5,2,5,4,5,4,5,4,4,5,4,5,5,5,5,4,5,2,5,4,4,4,5,6,6,6,6,6,6,6,2,3,2,2,3,6,4,2,7,6,3,2,2,3,2,2,2,2,2,2,2,2,2,2,3,2,2,2,2,5,5,5,5,5,5,5,5,5,6,5,5,4,7,6,6,2,2,2,2,2,2,2,4,2,4,2,3,2,2,2,2,1,6,4,3,3,3,3,2,4,2,4,1,4,4,4,4,4,3,1,2,4,4,2,3,4,2,4,4,4,4,4,3,4,5,4,4,5,2,2,3,2,2,4,2,4,4,3,5,4,4,3,2,4,4,4,2,3,2,2,3,2,4,2,5
"UCSB",1996,2,6,2,2,2,1,0,0,1,0,36.72222222,36.61111111,36.83333333,34.4335022,65,9.444444444,5,1,2,1,NA,4,2,2,1,4,1,3,2,1,NA,2,2,1,NA,NA,4,1,NA,2,"Water Polo","Triathlon","N/A","N/A","N/A",7,3,0,0,0,1,1,3,2,1,1,4,2,2,1,2,1,5,5,4,5,3,3,2,4,5,3,4,5,5,4,5,1,4,1,4,2,1,2,4,2,2,4,2,2,1,1,1,2,5,1,2,4,4,6,5,1,1,2,5,3,2,3,1,5,1,6,1,7,4,7,3,7,5,6,6,6,3,7,6,4,4,4,6,6,6,5,3,4,4,3,3,1,4,4,2,2,5,4,5,3,6,5,6,4,4,5,4,4,4,5,2,5,5,5,2,4,4,5,3,1,2,2,2,2,3,1,4,4,4,4,2,1,5,4,2,5,4,2,4,5,5,2,2,1,1,2,5,4,4,4,2,3,2,3,3,2,3,1,3,4,1,5,2,5,3,2,3,5,2,2,4,2,4,1,2,2,5,5,1,3,3,1,4
"UCSB",1996,2,7,1,4,1,1,3,0,2,NA,36.72222222,36.72222222,36.72222222,34.4329071,74,12.22222222,5,1,2,1,NA,4,2,5,NA,5,1,8,6,1,NA,2,4,1,NA,NA,3,1,NA,2,"Volleyball Team","Dorms","Hometown","Family","High School",12,3,3,4,8,4,3,4,4,4,4,3,4,3,4,5,4,3,2,4,5,2,2,2,2,3,2,2,3,5,2,3,2,4,3,4,4,2,3,4,2,4,4,4,4,2,2,4,3,4,2,4,4,4,2,5,4,5,3,3,3,2,6,4,3,2,2,5,4,2,2,3,3,2,2,2,2,2,2,2,2,2,3,2,3,3,2,3,5,4,4,5,5,5,5,5,5,7,4,5,5,5,5,5,2,4,1,2,1,2,3,2,3,2,1,2,2,3,4,3,4,7,6,3,3,3,3,1,4,5,5,3,4,4,3,4,5,2,2,3,4,3,2,3,3,3,3,4,3,4,4,4,4,3,4,2,2,2,3,3,2,5,4,4,2,2,4,3,4,3,4,2,4,4,4,3,4,2,3,4,3,3,2,2
"METU",1996,2,7,1,4,2,1,NA,NA,2,NA,36.75,36.9,36.6,39.911697387695,69,6,3,2,2,1,NA,2,2,2,2,8,8,2,1,1,NA,2,8,1,NA,NA,1,1,NA,1,NA,NA,NA,NA,NA,NA,NA,NA,NA,NA,2,4,4,4,5,1,5,4,4,4,4,4,2,3,3,3,3,3,3,3,3,3,3,3,3,3,3,1,1,1,1,1,1,1,1,1,4,1,4,3,3,1,1,1,1,1,3,6,5,2,2,7,3,3,5,6,2,5,2,4,1,4,7,1,2,2,2,2,6,7,2,4,2,2,2,4,5,2,5,3,2,2,1,5,5,5,5,5,4,4,5,5,7,6,7,6,6,6,6,2,2,3,3,2,2,3,2,2,3,2,2,2,2,4,2,5,7,3,2,2,2,2,4,2,5,5,2,2,2,4,2,5,4,2,2,4,4,3,3,3,3,4,4,4,4,3,3,4,4,3,4,4,1,1,1,1,2,3,3,3,3,3,4,4,3,2,3,4,4,5,5,3,3,4,3,3,3,3,4
"Tsinghua",1996,2,7,2,4,2,1,0,0,2,0,36.75,36.8,36.7,30.580093383789,78,17,7,3,2,1,0,4,4,5,0,6,1,6,1,1,1,2,3,1,1,1,1,2,1,1,"IT¼¼ÊõÑ§Ï°ÍÅÌå","ºÃÓÑÍÅÌå",NA,NA,NA,2,7,NA,NA,NA,4,5,4,4,5,1,3,2,3,4,4,5,4,1,2,2,2,1,1,1,1,1,2,1,4,2,1,1,3,1,1,2,1,4,3,2,3,3,3,4,1,1,1,1,1,1,1,4,5,3,5,6,4,5,5,3,5,2,4,4,5,2,6,6,3,5,4,6,5,4,5,6,5,6,3,2,6,2,5,5,5,6,2,3,3,3,3,3,3,2,2,2,3,2,2,4,4,3,3,2,2,3,1,2,1,2,2,2,1,1,2,3,2,2,1,4,4,2,1,1,4,3,2,2,4,4,2,2,2,2,2,4,2,1,4,3,2,3,1,5,1,1,5,3,4,2,4,4,3,3,4,4,3,3,3,2,4,4,3,4,2,4,2,4,4,2,3,2,4,2,3,3,2,2,3,3,3,5,1
"Serbia",1996,2,7,1,4,2,1,5,0,2,NA,36.75,36.5,37,44.818603515625,45,12,6,1,2,1,NA,4,4,4,4,7,6,4,4,1,NA,2,8,1,NA,NA,3,1,NA,1,NA,NA,NA,NA,NA,NA,NA,NA,NA,NA,4,5,4,4,4,4,2,1,3,1,2,4,4,3,4,4,2,3,2,2,3,2,3,4,5,2,4,2,2,2,2,2,2,2,2,2,4,2,2,3,4,2,2,2,2,2,4,1,1,2,1,1,4,1,1,1,1,NA,1,1,1,1,1,8,1,1,1,5,1,7,1,1,1,1,1,1,1,1,1,6,5,1,1,5,5,5,5,5,5,3,4,5,3,5,5,4,5,5,4,4,4,1,2,4,4,4,2,3,2,4,2,2,1,3,1,5,6,7,1,6,6,6,3,3,4,4,2,3,4,2,3,4,4,4,2,2,3,4,4,4,4,4,4,4,4,4,1,1,2,2,4,4,2,2,1,2,4,5,4,2,2,2,4,4,4,3,4,4,4,4,4,4,2,3,3,4,4,4,3
"Serbia",1996,2,5,2,4,2,1,6,0,2,NA,36.75,36.8,36.7,44.818603515625,45,12,6,1,2,1,NA,4,4,5,NA,7,3,8,7,1,NA,2,8,1,NA,NA,1,2,4,2,"AIESEC",NA,NA,NA,NA,3,NA,NA,NA,NA,4,4,1,4,3,3,1,2,2,2,3,2,4,2,3,3,2,2,2,3,3,2,2,3,4,1,3,2,2,2,2,2,1,2,3,3,2,2,2,2,2,1,1,2,2,1,2,4,4,4,5,4,3,5,4,4,1,1,4,4,1,2,3,1,1,5,NA,8,3,5,8,7,6,6,4,NA,6,5,8,5,5,5,4,5,5,5,5,5,5,3,3,3,5,5,5,5,4,4,4,3,2,2,2,3,2,4,2,4,2,3,1,2,1,2,1,2,3,3,1,3,3,3,2,2,3,4,3,1,3,2,2,3,2,3,2,2,5,4,4,4,3,4,4,3,5,5,2,1,1,3,4,3,3,2,3,2,4,4,4,5,3,1,2,4,3,2,4,5,5,5,5,5,2,5,3,3,3,4,3
"UCSB",1996,1,6,2,3,2,1,2,0,2,NA,36.75,36.27777778,37.22222222,34.4329071,58,10,5,1,2,1,NA,4,2,5,NA,2,2,5,4,1,NA,2,6,1,NA,NA,1,1,NA,2,"Khmer",NA,NA,NA,NA,2,NA,NA,NA,NA,4,2,1,2,2,4,1,2,2,2,2,4,4,3,2,2,3,3,3,3,2,4,4,2,3,4,3,2,2,2,2,4,2,2,2,2,2,2,2,2,2,2,2,2,2,2,2,4,4,3,3,4,4,1,5,4,4,3,3,4,1,5,1,5,1,4,7,5,7,1,4,4,7,7,3,4,7,3,5,4,7,7,4,5,4,5,4,2,4,2,4,2,4,4,3,3,3,3,3,4,4,2,4,2,2,4,4,2,2,2,2,4,2,2,2,1,2,2,2,2,2,2,4,4,5,3,2,2,1,1,4,4,4,2,4,4,4,4,2,4,2,3,4,4,3,2,2,3,2,2,3,2,3,4,2,2,1,2,2,2,2,4,4,2,2,2,4,2,4,2,2,4,4,4,2,4,4,2,4
"Serbia",1996,2,7,2,3,2,1,NA,NA,2,NA,36.75,36.5,37,44.818603515625,75,4,6,1,2,1,NA,4,4,5,NA,3,3,5,4,2,1,2,8,1,NA,NA,3,1,NA,2,"Klub studenata pedagoijeg",NA,NA,NA,NA,7,NA,NA,NA,NA,5,4,5,5,5,4,2,4,4,2,5,3,5,3,2,3,2,2,2,3,4,3,3,2,5,3,3,1,2,2,2,4,3,2,1,3,4,4,4,4,3,2,3,4,1,2,3,8,4,4,4,4,7,4,7,5,4,6,4,4,5,7,8,4,4,4,4,8,4,4,4,4,7,4,4,4,4,4,4,6,7,4,4,5,5,4,5,5,5,4,5,4,5,6,5,5,6,6,6,2,4,1,3,2,1,1,2,3,3,3,1,1,1,1,1,4,3,2,2,2,3,4,2,5,3,4,1,3,5,5,4,5,3,1,2,3,4,5,4,4,4,3,4,3,4,4,3,2,1,4,5,5,4,2,3,4,5,5,4,1,1,3,3,4,4,1,3,5,5,3,2,5,2,5,1,4,2,4,1
"Poland",1996,2,6,1,4,2,1,9,0,2,NA,36.75,36.8,36.7,52.25,68,0,9,1,2,1,NA,4,4,4,1,5,1,4,4,2,1,2,3,2,1,1,1,1,NA,1,NA,NA,NA,NA,NA,NA,NA,NA,NA,NA,4,4,2,4,2,4,2,1,2,3,2,4,3,2,3,2,4,4,4,3,3,4,4,3,4,4,2,4,2,2,2,1,2,2,2,4,4,4,4,4,4,1,2,2,1,2,4,3,2,2,2,2,2,5,2,2,1,6,2,2,2,2,5,2,2,3,3,2,2,3,3,2,2,2,2,2,5,3,1,6,6,4,2,5,4,4,4,4,4,2,4,3,3,3,4,3,3,4,5,2,3,1,3,4,2,4,2,2,2,2,2,2,2,3,2,4,4,5,3,3,3,2,2,4,2,5,4,2,2,4,3,4,3,2,3,4,4,2,4,4,2,3,4,5,3,2,2,4,4,3,4,4,1,2,2,2,4,4,4,2,2,3,2,3,4,2,2,4,4,4,3,4,3,2,4,4,4,2,2
"Serbia",1996,1,7,2,2,2,1,12,2,2,NA,36.75,36.8,36.7,44.818603515625,83,4,6,1,2,1,NA,4,4,5,NA,4,4,4,4,2,1,2,7,1,NA,NA,1,1,NA,2,"ars akta",NA,NA,NA,NA,6,NA,NA,NA,NA,3,4,3,3,3,3,3,3,2,2,4,2,3,4,4,5,3,3,4,4,4,3,3,4,4,3,4,3,3,1,3,3,2,2,3,3,2,3,3,3,3,1,3,3,3,2,3,4,2,5,4,8,2,2,7,3,2,4,4,5,4,4,5,4,2,8,1,8,NA,2,8,4,NA,1,NA,1,1,4,4,6,3,4,3,4,4,4,4,5,5,5,5,5,6,7,7,6,6,5,5,3,4,3,2,4,4,5,2,2,4,4,3,4,3,2,4,4,7,5,6,6,7,7,1,1,1,5,5,5,5,1,5,1,1,3,1,3,4,2,4,4,4,4,4,4,4,4,4,2,1,1,1,5,1,2,2,2,2,3,4,4,1,2,2,2,2,4,2,5,5,5,5,4,4,5,4,4,5,2,5
"METU",1996,1,5,1,4,2,1,2,0,2,NA,36.75,36.7,36.8,39.911697387695,70,3,3,2,1,1,NA,4,4,3,1,8,3,8,8,1,NA,2,8,1,NA,NA,8,1,NA,2,"Siyasi","Siyasi","E?lence",NA,NA,7,4,2,NA,NA,5,3,2,4,3,5,2,4,4,2,5,3,5,2,4,3,3,1,2,2,3,2,2,4,4,1,2,3,3,3,4,3,2,4,2,3,2,3,2,3,3,2,2,2,2,2,2,1,1,2,2,7,5,2,2,2,2,2,3,1,2,1,6,2,1,5,1,2,3,3,2,2,3,3,2,1,1,2,2,2,2,2,2,5,5,5,5,5,5,3,5,5,7,7,7,7,7,7,7,2,2,2,3,2,2,4,1,5,2,2,2,2,2,3,2,2,4,4,2,1,4,1,4,2,5,4,2,3,2,2,4,4,4,3,4,4,2,5,1,5,3,5,3,2,5,4,4,4,4,4,4,4,3,3,3,3,4,4,4,3,2,4,3,5,2,3,3,4,3,4,4,4,4,2,4,4,4,2,4
"Serbia",1996,2,6,2,4,2,1,0,0,2,NA,36.75,36.8,36.7,44.818603515625,70,1,6,1,2,1,NA,4,4,5,NA,5,3,4,3,1,NA,2,7,1,NA,NA,1,2,5,1,NA,NA,NA,NA,NA,NA,NA,NA,NA,NA,4,2,2,5,3,2,1,1,2,2,3,5,4,4,5,5,3,4,4,3,5,2,2,2,5,4,5,3,4,1,4,3,3,3,4,4,4,4,3,3,2,1,3,3,2,3,3,4,4,4,5,8,8,3,5,3,2,4,2,5,2,2,2,5,2,2,NA,8,NA,2,3,4,4,3,3,NA,5,3,5,6,6,NA,3,5,5,5,5,5,5,4,5,5,6,7,7,5,7,6,6,3,3,1,3,2,1,4,1,1,4,1,2,1,2,2,2,5,6,6,1,4,3,6,2,3,3,3,2,4,3,2,4,4,3,2,2,3,2,2,4,4,4,4,4,4,3,3,2,2,4,3,4,3,3,2,2,4,4,4,4,2,2,2,3,4,3,3,2,3,4,4,3,4,2,4,4,2,2,3,2
"Serbia",1996,2,1,1,4,2,1,1,0,1,7,36.75,36.5,37,44.818603515625,83,4,6,1,2,1,NA,4,4,4,1,3,2,6,6,1,NA,2,8,1,NA,NA,1,1,NA,2,"Udruzenje studenata psihologije","Petnica","Centar za promociju nauke",NA,NA,5,7,3,NA,NA,5,1,4,2,2,3,2,1,2,5,3,2,4,2,3,2,2,1,1,1,5,2,1,5,4,2,2,4,4,4,4,2,2,2,4,4,4,3,4,3,2,1,2,2,4,2,2,1,1,1,1,1,8,2,1,1,2,1,1,1,8,1,7,1,2,7,1,7,1,1,2,1,1,NA,1,1,1,NA,1,7,5,1,NA,5,5,5,5,5,5,5,5,4,5,6,5,4,5,5,6,1,1,1,1,2,1,1,1,2,1,2,1,3,1,1,1,4,4,4,1,2,3,6,1,1,1,5,4,5,2,3,5,1,1,2,5,5,3,4,5,5,5,5,5,3,5,4,1,1,2,2,1,5,1,5,1,4,4,3,4,4,2,2,3,4,4,4,1,5,5,5,5,4,3,5,5,4,4,2,4
"Tsinghua",1996,2,7,2,2,2,1,0,0,2,0,36.75,36.7,36.8,30.580093383789,65,16,7,3,2,1,0,4,4,5,0,8,6,7,6,1,3,2,8,1,3,5,8,2,4,1,"°à¼¶","ÉÌÒµ","Ö¾Ô¸","Ñ§Éú¹¤×÷","±çÂÛ",NA,6,NA,5,4,2,3,2,3,4,4,2,4,3,2,2,1,2,3,4,4,2,3,2,3,2,3,3,3,4,4,3,3,4,2,3,2,4,4,4,5,4,4,4,4,2,2,2,3,3,2,4,5,6,5,5,5,4,4,5,4,3,4,4,5,3,7,3,6,3,5,3,6,3,3,5,4,1,4,3,3,3,3,6,3,5,3,3,4,4,4,5,5,5,5,4,4,5,2,2,4,4,5,5,4,2,2,3,2,3,4,3,4,3,4,2,3,2,4,2,3,4,4,4,4,3,4,2,2,4,4,2,3,3,2,4,4,3,1,2,4,3,3,3,4,2,2,3,3,4,2,3,4,5,3,4,4,2,2,3,2,4,4,3,3,2,4,2,4,4,2,3,4,3,2,2,4,4,3,3,4,4,2,4
"Serbia",1996,2,1,1,4,2,1,8,0,2,NA,36.75,36.7,36.8,44.615295410156,78,9,6,1,2,1,NA,4,2,4,1,2,2,8,8,1,NA,2,8,1,NA,NA,1,1,NA,1,NA,NA,NA,NA,NA,NA,NA,NA,NA,NA,3,1,1,5,5,4,4,1,1,3,2,5,5,3,3,4,2,2,2,2,3,2,3,4,4,3,2,4,4,4,4,2,2,4,4,4,4,4,4,5,3,2,2,4,2,3,5,5,1,2,5,7,3,2,8,1,1,NA,2,2,1,1,8,2,1,1,1,3,1,3,1,1,NA,5,1,1,NA,1,1,4,5,1,NA,4,4,4,5,4,2,2,3,3,2,2,2,1,2,1,2,1,1,2,1,2,1,2,2,1,1,1,1,1,2,2,1,5,7,6,1,6,6,7,2,2,3,4,3,4,2,3,3,4,4,4,2,4,2,3,4,4,3,5,4,4,5,4,1,2,1,1,3,3,2,4,1,3,2,4,3,2,1,3,2,3,4,4,1,4,4,4,4,4,1,4,4,4,4,5,5
"Tsinghua",1996,2,1,2,2,2,1,0,0,2,0,36.75,36.8,36.7,30.580093383789,74,16,7,3,2,1,0,4,4,5,0,8,2,6,3,1,1,2,8,3,1,8,2,2,1,1,"Ñ§Éú»á",NA,NA,NA,NA,NA,NA,NA,NA,NA,2,5,4,3,4,4,1,3,3,3,3,2,3,4,3,4,3,2,3,2,3,3,3,3,3,2,3,4,4,4,4,4,3,4,4,5,4,5,4,4,5,3,3,4,3,3,4,5,1,1,2,6,4,4,2,2,3,3,4,2,2,7,4,5,1,2,1,2,2,3,2,6,2,2,2,2,3,2,2,2,1,1,3,5,5,3,5,5,4,5,5,5,6,3,3,6,6,6,6,2,2,3,2,4,3,4,3,4,2,2,2,2,2,2,2,5,5,4,6,3,3,3,3,3,4,4,2,3,2,2,2,4,3,2,3,4,3,2,2,4,3,3,4,4,4,3,4,4,5,4,4,5,2,2,2,4,4,4,2,1,2,4,2,2,4,3,2,4,4,4,3,4,5,4,5,3,4,2,4
"Tsinghua",1996,2,7,1,2,2,1,4,0,2,0,36.75,36.8,36.7,30.580093383789,71,16,7,3,2,1,0,4,4,5,0,8,1,8,4,2,1,1,8,1,1,1,1,2,1,2,NA,NA,NA,NA,NA,NA,NA,NA,NA,NA,3,3,2,4,4,2,1,2,2,2,3,2,2,4,3,4,4,4,4,4,4,5,5,3,4,5,4,5,5,4,4,4,4,4,4,5,5,5,5,5,5,5,5,4,4,3,5,6,6,6,6,6,4,2,4,6,4,4,2,6,3,4,6,6,3,3,2,2,2,2,4,2,2,2,2,4,2,2,4,2,1,4,4,4,4,4,4,4,4,4,4,4,4,1,5,5,5,5,5,5,5,3,4,4,3,4,2,3,4,4,3,3,2,2,1,3,3,6,2,3,4,2,1,5,4,4,2,3,2,4,3,4,2,1,3,5,4,2,4,4,2,2,2,3,4,2,2,4,4,2,4,4,2,2,2,2,4,4,2,2,2,4,3,4,4,2,2,4,4,3,4,2,2,2,4,3,2,2,4
"Poland",1996,2,7,1,4,2,1,60,10,1,10,36.8,37,36.6,NA,85,3,9,1,1,1,NA,4,4,3,3,3,2,3,2,1,NA,2,8,2,1,1,1,1,NA,1,NA,NA,NA,NA,NA,NA,NA,NA,NA,NA,1,2,4,4,5,3,4,5,4,2,4,4,2,3,4,5,4,4,3,3,4,2,3,5,4,3,4,2,2,2,2,2,1,2,2,2,2,2,2,2,2,2,2,2,3,2,2,2,2,5,2,6,1,2,3,4,3,5,5,2,2,1,7,7,2,5,6,5,1,5,1,1,6,3,6,2,6,6,2,6,6,5,5,2,3,4,3,3,2,2,4,2,6,4,3,3,7,6,6,4,4,1,5,5,4,4,2,5,4,5,3,4,2,2,2,5,7,7,6,6,5,4,1,4,3,4,1,5,2,1,4,5,4,2,4,4,3,2,4,2,4,5,2,3,5,5,5,4,2,4,3,2,1,5,3,1,1,4,2,1,2,3,1,3,4,4,1,4,4,4,4,2,4,3,4,4,2,5,4
"Oslo",1996,2,7,1,3,2,1,5,0,2,NA,36.8,36.7,36.9,NA,61,1,4,1,1,1,NA,4,4,4,4,5,3,7,7,2,1,2,8,1,NA,NA,2,1,NA,1,NA,NA,NA,NA,NA,NA,NA,NA,NA,NA,2,3,2,4,4,4,3,4,3,3,4,4,4,2,3,4,2,1,2,2,4,2,2,3,5,2,3,2,1,1,4,4,1,2,2,2,4,2,2,4,2,1,2,3,2,1,2,2,1,1,2,4,2,1,2,2,1,2,1,1,1,1,1,5,1,1,1,2,1,1,1,1,1,1,1,1,2,1,1,1,1,1,2,5,5,5,5,5,5,4,5,5,4,5,4,4,4,3,3,2,2,1,2,2,2,2,2,1,1,2,3,2,2,2,2,4,5,5,1,2,2,1,2,2,2,4,4,3,3,3,2,2,2,1,2,4,5,2,2,2,3,3,5,3,4,4,5,5,5,4,4,4,1,1,1,1,1,4,4,1,2,3,3,4,2,2,2,4,4,2,4,2,2,4,5,1,2,2,3
"Serbia",1996,2,7,2,3,2,1,12,0,1,15,36.8,36.8,36.8,44.818603515625,45,12,6,1,2,1,NA,4,4,5,NA,3,2,7,7,1,NA,2,8,1,NA,NA,2,1,NA,2,"Studentski klub",NA,NA,NA,NA,7,NA,NA,NA,NA,4,1,4,2,2,2,2,2,4,1,2,2,4,4,4,4,3,2,3,3,2,2,3,5,5,2,3,1,1,2,3,4,2,1,5,3,4,4,4,4,3,1,1,1,1,4,4,2,2,3,5,8,4,5,2,NA,4,NA,2,3,2,2,8,5,5,2,NA,5,NA,2,3,5,NA,NA,NA,NA,NA,NA,2,6,6,3,4,4,4,4,5,4,3,2,2,2,2,3,2,2,2,2,2,4,4,3,4,4,2,4,4,3,4,4,3,4,2,4,2,3,2,4,1,3,4,5,2,3,2,4,1,4,2,2,5,4,2,4,1,1,4,4,4,2,3,3,2,4,3,2,3,2,2,4,4,2,4,3,3,4,4,4,4,2,2,4,3,4,2,1,1,3,4,2,2,2,2,4,4,4,2,2,2
"Serbia",1996,2,6,2,4,2,1,0,0,2,NA,36.8,36.6,37,44.818603515625,44,12,6,1,2,1,NA,4,4,5,NA,4,2,6,6,1,NA,2,8,1,NA,NA,2,2,4,2,"Mind the Mind volonteri",NA,NA,NA,NA,3,NA,NA,NA,NA,5,1,5,3,3,2,2,4,4,3,1,1,2,3,5,5,2,2,3,3,5,2,4,4,5,2,5,4,4,2,3,3,3,2,3,2,4,1,4,2,3,1,2,1,2,2,4,3,2,4,2,5,4,2,4,3,4,3,3,3,2,8,3,5,4,7,4,7,NA,8,8,8,5,5,5,NA,5,3,5,7,6,7,3,4,4,5,4,4,4,4,3,4,7,5,5,5,7,7,7,5,5,2,5,4,3,4,5,5,5,4,2,2,3,5,2,5,6,4,4,4,4,6,3,3,1,4,4,1,3,3,2,3,2,4,2,2,5,3,3,3,4,2,4,2,2,4,2,2,1,2,2,4,2,2,3,1,1,3,3,4,4,2,4,3,4,2,2,2,5,2,2,4,4,4,3,4,4,3,4
"Tsinghua",1996,2,7,1,3,2,1,1,0,2,0,36.8,36.7,36.9,30.580093383789,74,16,7,3,2,1,0,4,4,4,1,8,3,8,4,1,1,2,8,3,1,8,4,2,1,2,NA,NA,NA,NA,NA,0,0,0,0,0,3,3,4,4,2,4,2,4,4,3,5,4,4,3,4,3,3,4,2,3,2,4,5,2,3,2,3,3,3,2,4,2,3,3,2,4,4,3,4,2,3,1,1,1,1,2,4,6,3,2,2,7,2,2,6,4,1,4,2,1,3,5,4,6,5,7,3,4,2,5,5,3,2,2,4,3,6,2,2,5,5,1,6,5,5,4,3,5,5,5,4,5,3,3,4,3,2,2,4,2,3,1,4,2,3,4,3,3,3,2,2,4,1,2,2,1,6,4,2,2,2,2,3,4,4,4,1,2,4,3,2,5,3,1,3,4,4,3,4,3,3,2,3,4,4,2,2,4,4,3,4,4,2,2,2,3,4,4,3,4,2,4,3,4,4,2,2,4,3,2,2,2,3,2,4,2,3,2,2
"Serbia",1996,2,3,2,3,2,1,4,0,2,NA,36.8,36.8,36.8,44.818603515625,65,10,6,1,2,1,NA,2,2,5,NA,6,4,6,5,2,1,2,6,1,NA,NA,2,2,4,1,NA,NA,NA,NA,NA,NA,NA,NA,NA,NA,5,3,2,5,1,1,1,3,2,4,2,1,3,3,4,5,2,2,1,2,2,2,2,3,5,2,3,4,4,2,4,1,2,4,1,5,4,5,4,4,4,2,3,5,2,2,4,8,5,5,8,8,2,2,8,5,2,NA,2,8,2,7,4,2,2,3,3,8,3,5,7,5,3,6,NA,NA,6,3,8,7,6,5,NA,5,4,4,5,5,5,4,4,4,7,6,7,6,7,6,7,4,4,1,4,2,3,4,4,5,2,2,1,3,2,2,2,5,4,5,1,6,6,6,4,2,2,5,4,5,5,5,2,2,2,4,4,2,4,2,4,5,4,5,4,4,4,5,1,2,2,4,2,4,2,2,1,1,1,4,4,4,4,1,2,4,4,4,1,4,4,4,5,4,4,5,4,4,4,4,4
"Serbia",1996,2,6,2,4,2,1,0,0,2,NA,36.8,36.8,36.8,44.818603515625,65,10,6,1,2,1,NA,4,4,5,NA,8,3,3,2,2,1,2,7,1,NA,NA,1,1,NA,2,"AIESEC",NA,NA,NA,NA,7,NA,NA,NA,NA,3,2,4,5,4,4,3,2,4,3,3,4,4,2,3,3,2,1,3,2,2,2,2,3,4,2,4,3,3,4,3,3,3,3,3,4,4,4,4,3,3,3,2,2,2,3,4,2,2,2,2,4,2,2,2,3,2,NA,4,1,2,2,4,4,2,4,NA,5,NA,2,2,2,NA,NA,NA,3,NA,NA,2,6,4,NA,4,4,4,4,5,5,3,3,3,3,3,5,4,4,4,4,5,2,2,1,2,2,4,3,2,2,2,1,2,3,2,2,2,4,3,4,2,3,3,4,3,3,4,5,3,2,2,2,2,4,2,2,2,3,1,2,5,3,4,4,4,4,4,4,1,1,3,3,4,2,2,3,1,1,3,4,3,2,2,3,1,4,2,3,2,4,3,3,4,4,2,5,3,3,4,4,4
"Tsinghua",1996,2,7,2,2,2,1,0.5,0,2,0,36.8,37,36.6,30.580093383789,87,17,7,3,2,1,0,4,4,5,0,4,3,6,3,1,1,2,8,1,1,1,1,2,1,1,"ÎÄÑ§Éç","ÌìÎÄÉç",NA,NA,NA,1,2,NA,NA,NA,3,2,2,3,4,3,2,2,2,3,2,2,4,3,2,3,4,4,3,4,2,4,5,2,4,3,2,3,4,2,4,3,4,2,4,4,4,4,4,4,3,2,2,2,2,3,2,5,5,5,6,6,5,6,5,5,3,5,3,5,3,6,2,6,3,6,3,2,2,2,4,3,3,5,2,3,2,2,3,2,3,2,5,5,5,4,5,5,4,4,4,5,6,3,4,5,6,6,6,2,3,2,3,2,2,3,4,2,2,2,3,4,2,4,3,3,4,3,2,2,2,4,3,4,5,3,1,2,4,4,2,5,3,2,5,4,2,5,2,3,2,2,4,4,3,3,4,4,4,2,3,3,2,2,2,2,2,2,4,4,2,3,4,4,3,2,4,3,3,3,2,3,3,2,4,3,3,2,4
"Serbia",1996,2,7,2,4,2,1,NA,0,2,NA,36.8,36.8,36.8,42.998092651367,51,5,6,1,2,1,NA,4,2,5,NA,4,2,5,5,1,NA,2,8,1,NA,NA,1,1,NA,1,NA,NA,NA,NA,NA,NA,NA,NA,NA,NA,4,2,3,2,3,1,2,1,5,1,4,3,1,4,3,4,1,1,3,3,4,4,5,4,5,3,3,5,5,3,5,5,4,5,5,5,5,5,5,5,5,1,1,1,1,1,5,4,4,4,4,4,4,4,4,4,4,3,4,4,1,7,4,8,4,4,4,4,4,4,4,4,7,7,4,4,4,4,4,4,4,4,4,5,5,5,5,5,5,4,5,5,5,4,4,4,5,5,5,5,5,1,5,4,4,5,4,5,4,3,1,4,2,3,1,1,2,1,1,2,2,2,1,1,1,5,3,5,3,1,5,2,2,3,1,1,5,5,3,1,1,5,5,4,3,4,3,1,1,1,1,5,1,5,3,1,1,5,4,2,2,2,4,1,5,1,1,5,5,1,1,4,3,5,4,2,1,1,5
"VCU",1996,2,7,2,5,2,1,0,0,2,NA,36.80555556,36.77777778,36.83333333,37.552200317383,81,14.44444444,5,1,2,1,NA,4,4,5,NA,3,2,5,4,2,1,2,4,1,NA,NA,1,1,NA,1,NA,NA,NA,NA,NA,NA,NA,NA,NA,NA,4,4,4,4,4,2,3,2,4,5,4,5,4,2,2,3,1,1,1,2,2,2,2,3,5,2,2,2,3,2,2,3,2,2,4,4,3,1,3,3,1,1,1,1,1,1,2,2,4,2,2,2,2,2,2,2,2,2,2,2,2,2,2,3,2,2,2,2,2,2,3,3,4,3,2,3,2,2,2,6,2,2,3,1,1,1,1,1,1,3,1,1,3,5,4,4,4,3,2,1,1,1,2,1,1,1,1,1,1,1,2,3,3,1,5,3,3,3,2,3,4,1,3,4,4,4,2,3,3,3,3,4,3,2,4,3,3,4,2,3,2,1,4,4,4,3,2,4,4,4,3,3,2,2,2,2,4,3,4,2,2,3,3,4,2,2,3,4,4,3,3,2,4,3,2,2,2,3,1
"VCU",1996,2,7,2,2,2,1,4,2,2,NA,36.80555556,36.88888889,36.72222222,37.553802490234,81,14.44444444,5,1,2,1,NA,4,4,5,NA,4,2,4,4,1,NA,2,8,1,NA,NA,2,1,NA,2,"Nurse Shadowing",NA,NA,NA,NA,1,NA,NA,NA,NA,3,2,3,3,3,4,4,4,2,3,5,4,5,3,3,4,2,3,2,3,3,3,3,3,4,2,4,2,4,4,4,2,2,4,2,2,4,4,4,4,4,2,4,2,4,3,4,3,4,4,5,3,6,3,5,5,3,5,3,4,3,3,3,5,3,3,4,5,4,4,4,5,5,5,3,3,3,3,5,3,5,5,3,5,4,4,4,5,4,4,4,3,6,5,4,6,5,5,4,4,4,4,4,4,4,4,2,4,4,2,2,2,3,4,3,3,4,3,3,2,4,4,1,4,2,4,2,5,3,3,4,5,2,1,3,3,4,2,3,2,3,2,4,4,4,3,4,4,4,4,3,3,3,2,3,2,5,4,4,2,2,4,3,4,4,3,2,4,4,2,2,4,4,4,3,3,4,2,2
"VCU",1996,2,7,2,3,2,1,4,0,2,NA,36.80555556,36.77777778,36.83333333,37.453506469727,94,13.33333333,5,1,2,1,NA,4,2,5,NA,6,4,3,3,2,1,2,3,1,NA,NA,1,1,NA,1,NA,NA,NA,NA,NA,NA,NA,NA,NA,NA,4,2,5,5,3,3,5,5,3,4,5,5,4,2,2,3,2,2,1,2,2,2,2,2,4,2,3,4,4,4,4,4,4,4,5,2,5,4,5,4,4,2,4,4,5,2,5,7,5,2,5,6,6,5,5,6,2,4,2,2,2,2,5,7,1,1,2,7,2,2,2,2,2,2,1,2,4,2,2,6,6,1,3,5,5,5,5,5,3,2,2,2,4,5,6,6,5,5,5,2,2,1,2,2,1,2,2,2,1,2,1,2,1,3,1,2,2,3,2,2,2,2,2,4,4,4,2,2,3,5,2,5,2,2,4,4,4,2,4,4,2,2,5,5,4,5,4,4,4,4,4,4,2,2,2,2,4,5,4,2,2,4,5,2,3,2,2,2,4,2,2,2,4,4,3,2,2,2,2
"UCSB",1996,1,7,1,1,2,1,1,0,2,NA,36.83333333,36.66666667,37,34.4329071,83,13.33333333,5,1,2,1,NA,4,4,5,NA,4,3,8,8,1,NA,2,8,1,NA,NA,1,1,NA,2,"Fraternity",NA,NA,NA,NA,50,NA,NA,NA,NA,2,2,2,5,2,1,2,2,2,2,4,5,5,3,4,5,2,2,2,2,4,2,4,4,4,4,3,1,4,1,4,4,4,2,1,4,4,4,4,4,4,2,2,4,4,3,4,2,2,1,5,1,4,4,2,3,1,6,1,2,1,2,1,5,1,1,2,1,2,1,1,6,2,2,2,1,2,2,1,2,3,2,2,4,4,4,4,4,2,2,2,2,6,5,5,5,5,5,5,2,2,1,2,3,3,2,2,2,1,2,3,2,2,4,2,4,5,6,3,3,5,5,2,4,4,4,4,4,4,3,4,4,3,3,4,4,2,2,2,2,4,4,3,2,4,4,4,4,4,4,4,4,2,2,2,2,2,4,3,3,2,4,3,4,4,4,2,4,4,4,4,4,2,4,4,3,4,2,2
"UCSB",1996,2,7,1,4,2,1,8,0,2,NA,36.83333333,36.77777778,36.88888889,34.4329071,45,6.111111111,5,1,2,1,NA,4,4,5,NA,4,1,7,5,1,NA,2,5,3,1,5,3,1,NA,2,"VSA","Suitemates","Family","Friends","work",20,7,3,9,4,3,2,1,3,2,3,1,1,1,2,3,2,2,3,3,2,2,3,3,3,3,4,3,2,4,3,2,2,4,2,4,2,2,2,4,4,4,4,4,4,4,2,2,2,2,2,4,3,2,2,5,5,2,2,2,2,1,2,2,3,3,2,2,5,2,2,1,2,2,2,1,2,2,2,1,2,2,1,2,2,2,1,1,5,5,5,5,5,5,4,5,5,5,5,5,5,5,5,5,2,2,1,2,2,2,2,4,2,2,2,2,4,2,3,2,5,4,5,5,5,3,5,2,4,4,4,2,2,4,4,2,4,2,4,2,4,2,2,2,2,3,3,4,2,4,4,4,4,4,4,4,4,1,2,2,2,1,3,2,3,4,4,2,4,4,4,4,2,4,4,3,4,2,4,2,4,4,2,4
"UCSB",1996,1,7,2,5,2,1,1,0,2,NA,36.83333333,36.55555556,37.11111111,34.4329071,80,8.333333333,5,1,2,1,NA,4,4,5,NA,3,2,8,3,1,NA,2,4,1,NA,NA,2,1,NA,2,"Climbing Team","-","--","-","-",6,0,0,0,0,2,4,4,1,2,4,2,4,2,5,5,2,3,4,2,5,2,4,3,3,3,3,3,4,5,1,4,4,4,2,4,4,3,1,2,5,5,4,5,5,2,1,3,2,4,1,4,4,4,4,5,5,5,3,6,4,3,6,6,5,5,3,3,7,3,5,5,5,3,3,4,1,4,6,4,3,5,3,1,4,4,3,4,5,5,5,5,5,4,4,5,5,6,6,6,4,6,7,6,2,4,1,4,2,2,4,2,1,4,3,2,2,1,4,3,2,3,4,2,2,2,2,2,4,4,4,2,2,2,3,2,4,3,2,4,4,2,4,2,1,1,3,5,3,5,4,4,4,4,5,5,4,3,4,3,2,2,3,4,2,2,4,2,5,2,2,3,4,4,4,4,4,3,4,4,5,2,2,4
"Serbia",1996,2,6,2,3,2,1,0,0,2,NA,36.85,36.9,36.8,44.818603515625,45,12,6,1,2,1,NA,4,4,5,NA,5,3,3,3,1,NA,2,8,1,NA,NA,2,1,NA,1,NA,NA,NA,NA,NA,NA,NA,NA,NA,NA,4,5,4,5,5,5,4,3,4,5,3,4,4,2,3,2,2,1,2,1,2,2,4,3,5,2,2,2,1,2,1,1,1,1,2,1,4,2,2,1,2,1,1,1,2,1,2,2,2,2,2,2,2,2,4,NA,2,NA,2,2,2,2,2,2,2,2,1,2,1,2,2,2,1,1,5,1,6,NA,2,6,6,1,1,4,4,4,4,4,4,2,3,3,3,2,3,2,2,2,3,2,2,1,2,1,2,3,2,2,1,2,2,2,2,1,2,5,4,5,2,2,3,4,2,2,1,4,3,4,3,2,4,4,2,2,3,3,4,2,4,4,4,4,4,4,4,4,2,2,1,2,4,4,2,2,3,2,2,4,2,4,2,2,4,3,2,4,4,3,4,4,4,4,4,4,2,3,2,2,4
"Kassel",1996,2,6,1,2,2,1,0,0,2,NA,36.85,37.2,36.5,50.779403686523,92,-2,1,1,1,1,NA,4,4,4,1,5,5,5,5,2,1,2,3,1,NA,NA,2,2,8,2,"Fachschaftsrat Psychologie Uni Kassel","Pfadfinder",NA,NA,NA,10,2,NA,NA,NA,3,4,3,4,3,3,2,2,3,4,3,4,3,3,3,3,2,2,2,2,3,2,3,3,3,2,2,1,4,1,4,1,1,2,1,3,3,1,2,1,1,1,1,1,1,2,1,1,1,1,1,1,1,2,1,1,1,1,1,1,1,1,1,1,1,1,1,2,1,1,1,1,1,1,1,1,1,1,1,6,6,1,1,5,4,5,5,4,4,1,5,5,3,2,3,3,4,3,3,2,2,2,2,2,1,3,1,1,1,2,1,4,1,2,1,5,7,5,2,4,2,5,4,2,3,4,4,3,2,2,4,3,1,1,2,4,3,1,2,4,3,5,2,3,4,5,4,3,2,3,4,3,2,2,3,2,2,3,2,2,4,2,2,4,4,4,2,4,4,3,3,5,4,2,4,4,3,2,3
"Oslo",1996,2,7,1,4,2,1,1,3,2,NA,36.85,36.4,37.3,59.950607299805,96,0,4,1,1,1,NA,4,4,4,4,7,3,8,8,1,NA,2,8,3,1,4,5,1,NA,1,NA,NA,NA,NA,NA,NA,NA,NA,NA,NA,2,5,4,5,5,3,5,3,4,4,4,5,5,2,3,4,2,3,2,1,4,2,2,3,5,2,3,2,2,2,3,3,1,4,3,4,5,4,5,4,4,1,2,2,2,3,5,2,2,1,1,2,2,1,2,2,2,2,1,2,1,2,3,6,1,1,1,2,2,2,3,2,1,1,1,1,1,2,1,1,2,1,2,5,5,5,5,5,5,4,5,4,3,3,4,5,4,2,2,2,3,1,2,2,2,2,3,2,2,2,3,3,2,2,2,5,6,5,1,5,4,3,2,4,2,4,2,5,2,3,4,3,2,2,2,3,4,2,3,2,3,2,4,2,4,5,4,4,4,4,3,3,2,2,2,4,4,4,4,1,2,3,4,3,3,2,1,4,4,4,4,4,2,3,3,4,3,2,4
"Serbia",1996,2,1,1,4,2,1,0,0,2,NA,36.85,36.9,36.8,44.818603515625,75,4,6,1,2,1,NA,4,4,5,NA,2,2,2,2,1,NA,2,8,1,NA,NA,3,1,NA,1,NA,NA,NA,NA,NA,NA,NA,NA,NA,NA,3,1,3,5,4,5,1,2,4,3,2,2,2,2,5,3,3,3,2,2,3,3,3,5,4,1,3,2,3,4,4,3,2,4,2,5,3,4,2,1,2,2,3,3,3,3,1,1,2,1,2,2,3,1,1,1,2,NA,2,1,4,2,8,2,1,2,1,8,1,2,1,1,6,1,NA,1,NA,1,1,6,6,3,1,5,3,3,5,5,3,4,3,3,5,4,6,5,5,5,6,4,2,1,3,2,2,2,2,2,4,2,1,2,1,3,1,4,7,4,1,4,3,6,1,3,2,4,1,4,2,2,5,4,3,4,2,2,4,5,4,5,4,5,3,3,4,4,1,1,1,4,4,4,2,2,1,3,3,4,3,2,2,3,2,5,4,4,1,1,5,3,4,4,2,5,5,2,3,2,2
"Serbia",1996,2,5,1,3,2,1,4,0,2,NA,36.85,36.8,36.9,44.818603515625,61,1,6,1,2,1,NA,4,4,4,1,2,3,4,4,1,NA,2,8,1,NA,NA,2,1,NA,1,NA,NA,NA,NA,NA,NA,NA,NA,NA,NA,4,4,4,5,5,4,4,5,5,3,4,4,4,3,4,4,3,4,4,3,5,3,3,4,4,2,4,3,3,4,4,3,4,4,4,4,2,4,3,2,3,2,2,2,1,2,3,5,3,5,5,5,4,8,4,4,4,5,3,2,3,8,5,4,2,5,4,8,3,3,3,3,6,4,NA,NA,NA,NA,4,6,5,4,4,4,3,4,4,4,4,4,4,3,5,5,4,2,5,5,4,4,4,2,3,4,3,4,4,5,4,4,2,2,2,5,2,3,4,3,2,3,3,3,1,5,4,2,1,4,5,4,4,5,5,4,1,1,5,5,2,3,2,4,3,3,2,2,3,2,3,4,5,4,4,5,4,2,4,4,4,5,2,3,4,4,4,2,2,4,4,2,2,2,4,5,1,2,2,2,4
"UCSB",1996,1,7,1,4,1,2,32,0,2,NA,36.86111111,36.38888889,37.33333333,34.4329071,86,12.22222222,5,1,2,1,NA,4,4,4,1,2,2,5,5,1,NA,2,8,3,1,8,1,1,NA,1,NA,NA,NA,NA,NA,NA,NA,NA,NA,NA,3,1,4,5,4,2,2,2,3,1,4,3,3,4,2,3,2,2,3,2,3,2,3,3,5,3,3,2,2,2,2,2,2,3,2,4,2,2,2,2,2,1,1,1,3,1,1,2,2,2,2,1,2,2,2,1,2,2,2,2,2,2,1,2,2,3,2,2,2,2,2,2,2,2,2,3,2,2,2,2,2,2,2,4,5,5,5,5,4,4,4,4,4,5,4,3,5,5,5,3,3,1,2,2,3,4,3,2,2,2,2,3,1,3,2,4,5,4,2,2,6,6,2,3,4,4,3,2,4,5,3,5,2,2,4,4,2,3,2,1,4,4,4,4,4,5,5,5,4,4,5,5,2,2,2,2,2,3,2,2,1,2,3,2,2,3,2,4,4,4,4,5,2,4,4,2,2,2,3
"UCSB",1996,2,5,2,2,2,1,0,0,2,NA,36.88888889,36.88888889,36.88888889,34.50210571,64,6.111111111,5,1,2,1,NA,4,4,5,NA,2,2,6,5,1,NA,2,8,3,1,8,1,1,NA,1,NA,NA,NA,NA,NA,NA,NA,NA,NA,NA,3,2,2,2,2,2,2,3,4,4,2,3,3,5,3,4,2,3,3,3,5,3,5,3,5,2,4,5,5,4,5,5,5,5,5,5,5,5,5,4,5,3,3,5,4,5,5,6,5,3,5,3,6,7,4,3,2,3,5,3,2,5,5,6,2,6,5,3,4,3,2,4,3,4,2,4,6,2,4,3,2,3,6,4,2,4,2,3,3,3,2,3,5,5,6,4,5,5,5,2,4,2,4,2,3,2,4,2,2,2,2,4,2,4,2,3,3,3,2,2,4,1,1,4,2,5,5,3,5,4,4,2,4,3,3,4,4,2,3,4,2,2,5,3,3,2,2,2,2,3,2,4,3,3,4,2,2,3,2,2,4,3,2,4,3,2,4,3,4,2,2,2,4,3,3,2,3,1,4
"Serbia",1996,2,4,2,4,2,1,5,0,2,NA,36.9,36.9,36.9,44.818603515625,56,6,6,1,2,1,NA,4,2,5,NA,1,NA,5,5,1,NA,1,NA,1,NA,NA,2,2,2,2,"udruzenje gra?ana","Crveni krst",NA,NA,NA,6,4,NA,NA,NA,4,3,3,3,3,3,2,2,2,3,3,2,3,2,3,2,1,2,1,3,3,2,2,2,5,2,2,1,1,1,1,1,1,2,1,2,3,3,4,2,1,1,1,3,1,1,4,3,8,4,5,7,7,4,5,6,3,7,5,1,3,1,5,5,5,2,1,2,1,1,1,2,3,NA,5,5,6,6,1,6,4,1,6,5,3,4,4,4,2,1,1,1,4,7,7,6,7,7,6,1,1,1,1,1,2,1,1,1,1,1,4,1,1,1,1,4,6,7,1,3,6,6,1,2,1,5,5,3,3,3,4,2,2,2,2,3,4,2,5,5,5,3,2,5,4,2,1,4,1,1,2,5,1,4,2,1,2,4,2,3,2,2,2,4,1,2,4,4,4,4,4,3,5,3,2,5,2,1,3
"Poland",1996,2,7,1,4,2,1,40,0,2,NA,36.9,36.7,37.1,52.25,75,0,9,1,1,1,NA,4,4,4,4,4,4,5,3,1,NA,2,8,2,1,1,1,1,NA,1,NA,NA,NA,NA,NA,NA,NA,NA,NA,NA,3,4,4,4,5,5,1,2,4,4,3,5,1,4,2,4,3,3,3,3,3,2,3,4,3,3,4,4,4,2,4,2,1,2,2,4,4,4,5,4,4,2,2,2,2,2,2,5,5,2,2,2,2,5,3,3,2,3,5,2,2,2,7,7,2,2,2,6,2,2,1,2,2,6,2,2,2,2,2,6,6,2,5,5,5,4,5,4,5,5,5,5,4,6,6,6,6,4,4,2,2,1,2,2,2,3,2,2,2,2,2,1,1,1,2,4,8,7,6,6,6,6,1,4,1,5,2,2,2,2,4,4,2,1,2,4,4,1,4,2,2,5,3,5,1,5,5,5,5,4,5,5,1,1,1,1,4,4,4,1,2,3,2,5,2,5,2,5,5,5,2,5,1,5,5,5,4,2,4
"Tsinghua",1996,2,7,2,3,2,1,4,0,2,0,36.9,37,36.8,30.580093383789,90,13,7,3,2,1,0,4,4,5,0,8,1,3,1,1,1,2,3,2,1,1,4,2,1,2,"ÔºÖ¾Ô¸ÕßÐ­»á","¶ÁÕß¾ãÀÖ²¿",NA,NA,NA,NA,1,NA,NA,NA,3,4,2,3,4,4,1,3,3,2,4,3,3,2,3,3,2,3,2,2,3,2,4,3,5,3,2,4,2,1,4,1,3,3,5,4,4,4,3,3,2,1,1,2,1,4,2,6,6,3,6,6,5,5,6,3,6,3,4,6,5,6,5,5,2,5,2,5,3,2,3,5,2,3,1,2,2,2,6,3,3,2,2,4,4,3,5,5,4,5,4,4,2,2,5,4,3,4,2,2,4,2,4,4,2,4,4,4,3,2,2,2,2,2,1,4,4,4,2,5,3,2,2,5,4,4,2,2,1,2,3,5,3,1,2,4,4,1,4,5,2,2,4,4,4,3,3,4,5,2,4,4,2,3,2,2,1,1,3,3,2,4,3,4,5,3,4,5,2,3,2,3,2,1,5,4,4,2,3
"SMU",1996,2,6,1,3,2,1,2,0,2,NA,36.9,37,36.8,1.2931060791016,71,26,5,1,2,1,NA,4,4,5,NA,1,NA,6,6,2,1,2,8,1,NA,NA,1,1,NA,2,"Community Service Project - still in the planning stages, not yet executed",NA,NA,NA,NA,6,NA,NA,NA,NA,3,5,2,4,3,4,3,3,2,4,4,5,2,3,3,4,3,2,2,3,3,3,3,4,4,3,4,2,4,2,4,2,2,4,4,4,4,4,4,4,4,2,2,2,2,2,4,2,2,2,2,2,2,2,2,2,3,2,2,2,2,2,3,2,2,4,2,3,2,2,2,2,2,2,2,2,2,2,2,2,2,2,2,4,4,4,4,4,4,4,4,4,3,5,5,5,4,4,5,2,2,2,2,2,2,4,3,2,2,2,2,2,2,2,2,3,3,6,2,3,2,4,2,1,4,3,2,3,4,4,4,4,4,2,4,4,4,4,3,2,4,4,3,2,4,4,4,4,4,4,4,4,2,2,2,4,2,4,2,2,4,2,3,4,3,4,3,4,4,4,4,4,2,4,4,4,4,4,4
"Serbia",1996,2,7,2,3,2,1,7,2,2,NA,36.9,36.8,37,44.818603515625,83,4,6,1,2,1,NA,4,4,5,NA,5,5,4,4,1,NA,2,8,1,NA,NA,2,1,NA,1,NA,NA,NA,NA,NA,NA,NA,NA,NA,NA,5,3,2,2,2,4,5,3,2,1,2,3,4,3,4,4,2,2,2,3,3,2,3,4,4,2,3,4,4,2,5,4,2,4,5,5,4,4,4,4,4,4,4,4,3,4,5,8,8,4,8,7,5,8,8,4,2,NA,5,4,8,5,8,2,2,8,NA,5,1,2,2,2,3,NA,NA,NA,NA,NA,2,4,3,NA,NA,5,4,5,5,3,5,2,5,5,3,6,4,4,6,4,5,2,2,2,2,3,2,3,2,2,3,1,1,2,1,3,2,2,6,4,3,4,4,5,4,4,5,2,1,2,1,1,4,5,5,5,2,2,5,5,2,4,3,4,3,1,3,3,2,2,2,4,5,3,5,2,1,2,4,4,4,3,2,3,4,3,4,2,3,4,5,2,2,5,4,5,2,5,4,1,5
"METU",1996,2,7,2,3,2,1,5,NA,1,7,36.95,36.8,37.1,39.911697387695,64,2,3,2,2,1,NA,4,2,5,NA,3,1,1,1,1,NA,2,6,1,NA,NA,1,1,NA,1,NA,NA,NA,NA,NA,NA,NA,NA,NA,NA,4,3,3,1,4,4,1,4,3,3,2,3,3,4,4,5,3,2,2,4,4,3,4,5,4,3,4,2,2,2,2,2,2,2,2,2,2,2,1,2,2,1,1,1,1,1,2,7,7,6,7,6,7,7,7,6,5,7,4,7,4,6,7,7,3,6,2,6,3,4,2,4,2,2,3,3,6,6,2,4,4,2,7,3,1,3,2,1,2,3,1,1,6,5,3,5,5,4,5,3,2,1,3,2,3,4,4,1,3,2,2,2,4,3,4,4,7,4,6,6,5,1,1,3,2,5,2,4,3,2,5,3,3,1,1,2,5,1,5,4,2,5,4,5,4,3,2,2,1,4,1,1,3,5,1,5,2,2,2,4,1,4,4,4,2,5,2,2,2,2,3,3,3,4,2,1,2,4,5
"Tsinghua",1996,1,7,2,2,2,1,2,0,1,5,36.95,36.8,37.1,30.580093383789,61,10,7,3,2,1,0,4,4,5,0,8,1,8,5,1,1,2,8,1,8,1,1,2,5,2,"°à¼¯Ìå","ÇàÄê´«²¥ÖÐÐÄ",NA,NA,NA,24,4,NA,NA,NA,3,3,4,2,2,3,3,2,3,3,3,3,2,2,2,2,3,4,3,4,3,3,3,4,3,4,3,3,4,3,2,3,3,3,4,1,4,2,3,4,3,3,4,3,4,3,2,5,3,4,4,4,4,4,4,5,3,4,4,3,3,5,4,4,4,5,4,3,5,4,4,3,4,4,4,3,4,4,4,4,5,3,4,3,3,3,3,2,3,5,3,3,3,3,3,3,5,3,4,3,3,4,2,3,3,2,3,3,3,2,3,3,3,2,3,4,4,4,3,4,3,5,3,3,4,4,2,2,3,3,3,4,2,2,1,3,3,3,3,3,4,2,3,3,3,2,4,3,3,2,3,3,2,3,4,3,3,2,2,4,4,2,3,4,2,3,4,3,2,3,4,2,3,4,3,2,3,4,2
"Tsinghua",1996,2,7,2,2,2,1,4,0,2,0,36.95,37.1,36.8,30.580093383789,87,17,7,3,2,1,0,4,2,5,0,5,1,4,4,1,1,2,7,1,1,2,1,2,1,1,"ºþ±±´óÑ§ÊÐ³¡ÓªÏúÐ­»á",NA,NA,NA,NA,1,NA,NA,NA,NA,2,3,3,4,3,3,2,2,2,4,2,3,4,4,3,4,2,3,2,4,2,2,4,3,4,2,2,3,4,2,4,3,3,2,3,4,5,4,4,5,4,2,4,2,3,3,3,5,4,3,4,7,5,5,5,5,4,6,3,4,4,7,5,6,4,6,1,5,4,4,3,5,3,5,2,4,5,2,4,2,2,1,4,3,5,4,3,5,5,5,5,5,6,4,5,4,4,5,5,3,4,3,4,4,3,4,3,3,2,3,2,3,2,4,2,5,5,6,2,3,2,2,4,5,5,4,1,2,4,3,3,5,4,2,4,4,2,5,4,3,2,3,4,4,3,3,3,5,5,3,4,3,2,1,2,4,4,4,2,3,2,4,3,4,4,4,3,5,3,5,5,3,4,3,5,3,4,2,4
"SMU",1996,2,7,2,3,2,1,5,0,2,NA,36.95,36.6,37.3,1.2931060791016,79,26,5,1,2,1,NA,4,4,5,NA,2,8,6,5,2,2,2,8,2,2,1,1,2,4,2,"People for animal welfare",NA,NA,NA,NA,3,NA,NA,NA,NA,3,3,2,3,2,3,2,3,2,4,4,3,2,4,5,4,2,2,2,2,4,2,2,5,4,2,4,4,4,3,4,3,4,4,3,4,4,4,4,4,4,4,4,4,4,4,4,4,5,5,5,5,6,5,2,5,5,6,4,4,4,5,3,5,4,4,3,5,3,3,6,5,3,3,3,3,3,3,3,3,4,3,4,5,5,5,5,5,5,5,5,5,5,6,6,6,6,6,6,3,3,2,2,3,4,4,2,2,3,3,2,2,1,2,2,3,4,6,3,3,3,4,4,4,4,4,2,3,3,3,3,5,4,2,4,5,5,4,4,4,3,3,5,5,4,4,4,3,4,4,4,4,3,3,3,1,4,4,4,4,4,4,4,4,5,3,3,4,4,3,3,4,3,4,3,4,3,1,4
"Tsinghua",1996,2,7,2,2,2,1,16,0,2,0,36.95,36.7,37.2,30.580093383789,66,13,7,3,2,1,0,4,4,5,0,8,8,7,5,1,1,2,1,1,1,1,1,2,1,2,NA,NA,NA,NA,NA,NA,NA,NA,NA,NA,3,4,3,4,5,5,1,3,1,3,3,2,2,4,5,5,4,4,3,4,5,3,5,5,5,2,3,4,5,3,5,4,5,5,5,4,5,5,5,5,5,3,4,3,2,2,5,4,5,6,5,6,4,6,6,4,4,4,5,5,4,7,1,6,2,3,4,4,4,3,3,5,4,7,4,4,5,4,5,4,4,2,4,5,5,5,5,5,4,5,4,5,1,2,4,1,1,1,2,3,4,4,3,4,4,4,4,3,2,1,2,2,1,2,1,3,3,4,4,3,2,4,2,4,5,5,1,3,1,2,4,5,3,1,3,5,5,3,3,3,1,1,3,5,3,1,2,5,5,2,5,5,1,1,1,3,3,4,3,2,4,4,5,3,5,2,2,5,1,1,1,2,4,3,3,2,3,2,4
"Poland",1996,2,4,1,4,2,1,11,1,2,NA,36.95,36.9,37,51.583297729492,70,4,9,1,2,1,NA,4,2,4,1,6,4,4,4,2,1,2,4,6,1,4,1,1,NA,2,"grupa fan¨®w zespo?u",NA,NA,NA,NA,2,NA,NA,NA,NA,2,4,1,3,4,4,2,4,3,2,3,4,3,5,5,5,3,3,2,3,5,1,3,5,5,2,5,5,5,5,5,5,5,5,5,5,5,5,5,5,5,4,4,4,3,3,5,6,6,6,6,7,6,6,6,6,2,2,7,6,7,6,6,7,4,2,3,6,4,4,4,5,3,4,3,2,6,4,5,4,5,5,5,4,4,4,3,4,5,5,5,5,7,6,6,6,6,7,7,5,4,5,4,5,5,5,4,5,4,5,2,3,1,5,3,5,7,7,6,6,7,6,2,4,2,5,1,4,1,2,4,4,2,2,5,5,3,3,5,1,5,5,4,5,5,5,5,5,4,4,4,5,3,3,3,4,3,5,5,1,2,4,4,3,4,5,2,2,4,5,5,5,2,5,5,5,5,2,5
"UCSB",1996,2,7,1,3,2,1,3,0,2,NA,36.97222222,36.94444444,37,34.4329071,57,6.111111111,5,1,2,1,NA,4,4,5,NA,4,4,1,1,2,8,2,8,2,1,2,2,2,8,2,"Yoga","na","na","na","na",7,0,0,0,0,5,2,5,5,4,4,3,4,5,4,5,5,5,4,4,4,2,2,2,3,3,3,2,2,5,2,3,4,4,3,5,4,3,3,4,4,5,4,5,4,4,1,2,2,3,2,5,1,1,1,2,1,1,1,1,2,1,1,1,1,2,1,1,1,1,3,4,4,2,1,1,1,7,7,2,1,1,3,1,2,5,2,2,5,5,5,5,5,5,5,5,5,3,5,5,5,5,4,4,1,1,1,5,2,3,4,1,2,3,2,2,2,2,5,2,5,7,6,1,1,5,6,1,3,2,5,5,4,4,2,5,4,1,1,1,1,4,1,2,1,4,4,4,1,4,3,4,4,4,4,4,4,1,1,1,3,4,5,5,2,2,2,1,4,1,1,1,5,4,5,5,1,3,2,1,1,3,5,3
"UCSB",1996,2,7,2,5,2,1,0,0,2,NA,36.97777778,36.94444444,37.01111111,34.50210571,92,13.88888889,5,1,2,1,NA,4,4,4,1,5,3,8,8,1,NA,2,8,1,NA,NA,2,1,NA,2,"Sorority",NA,NA,NA,NA,30,NA,NA,NA,NA,2,3,3,3,1,4,3,3,1,2,4,2,2,3,4,4,3,3,2,2,3,3,3,3,3,2,3,4,3,2,2,2,1,2,2,4,4,2,4,4,2,1,1,1,1,1,4,6,4,3,6,7,7,7,5,6,6,3,5,5,5,1,4,5,1,2,1,3,1,2,2,2,1,5,1,1,1,1,2,1,3,1,3,4,4,3,5,4,2,2,3,3,7,5,6,6,6,6,6,4,4,1,4,4,3,5,4,3,4,4,2,4,2,4,3,3,5,5,3,3,3,3,4,4,4,4,2,3,4,4,3,5,3,3,4,4,3,3,3,2,3,3,3,4,5,4,4,5,3,5,5,3,2,2,2,1,5,4,2,1,2,5,3,4,4,4,3,3,5,3,4,3,1,5,2,3,3,3,4
"Tsinghua",1996,2,7,2,2,2,1,0,0,2,0,37,37,37,30.580093383789,71,16,7,3,2,1,0,4,4,5,0,7,1,8,4,1,1,2,5,1,1,1,1,2,1,2,NA,NA,NA,NA,NA,NA,NA,NA,NA,NA,5,4,3,3,2,5,3,5,4,1,5,3,4,2,2,2,2,2,2,3,2,2,3,4,4,3,2,1,2,1,3,1,1,2,3,2,3,3,4,2,2,1,1,1,3,1,3,2,1,2,4,3,2,1,4,3,2,3,2,2,2,5,1,5,2,1,3,5,5,2,3,7,4,4,3,3,7,3,6,3,5,3,4,4,4,4,3,4,4,4,4,4,2,2,2,2,2,2,2,3,4,3,2,4,3,4,4,2,4,2,2,4,2,2,2,4,2,1,2,2,1,2,2,2,5,5,2,1,1,1,1,4,5,1,2,2,2,1,1,5,3,2,5,5,5,5,5,5,5,3,4,4,3,2,2,4,1,5,4,4,2,4,4,4,4,4,4,5,5,2,4,2,4,5,4,4,2,5,4
"Serbia",1996,1,5,2,4,1,1,5,0,2,NA,37,36.9,37.1,44.818603515625,45,12,6,1,2,1,NA,4,4,5,NA,6,6,8,8,1,NA,2,8,1,NA,NA,3,1,NA,1,NA,NA,NA,NA,NA,NA,NA,NA,NA,NA,3,4,3,4,5,4,1,3,2,4,2,4,5,3,4,3,2,2,2,2,3,2,2,4,4,2,2,1,3,3,2,2,1,3,1,2,2,1,3,2,2,1,2,1,1,1,3,2,2,2,5,2,4,2,4,NA,2,NA,2,3,1,1,1,2,1,2,NA,5,3,3,2,2,6,3,3,NA,3,3,2,6,NA,3,3,5,4,4,5,5,4,3,4,4,4,5,5,4,4,4,4,1,2,1,2,2,2,2,1,4,1,2,2,1,1,2,5,4,6,4,1,2,2,4,5,5,4,2,1,1,5,4,1,5,4,2,3,2,4,3,4,3,3,4,4,4,4,4,2,2,5,5,5,2,4,4,2,2,4,5,5,5,1,2,3,4,4,3,3,4,4,2,2,1,2,3,2,3,2,2,3
"Serbia",1996,2,7,2,4,2,1,2,0,2,NA,37,37,37,44.818603515625,65,10,6,1,2,1,NA,4,4,5,NA,6,5,5,4,2,1,2,8,1,NA,NA,3,1,NA,1,NA,NA,NA,NA,NA,NA,NA,NA,NA,NA,4,5,4,5,4,5,3,4,5,3,4,5,5,3,3,3,2,2,2,2,3,3,3,2,4,2,2,2,2,3,2,2,1,2,2,2,4,3,3,2,2,1,1,2,2,2,3,4,4,4,4,4,4,4,4,4,4,4,4,4,4,4,4,4,4,4,4,4,4,4,4,4,4,4,4,4,4,4,4,4,4,4,4,5,5,5,5,5,3,3,5,4,4,6,5,4,5,5,5,2,3,1,2,1,2,2,2,2,2,2,3,3,2,3,2,4,7,5,2,6,6,5,1,2,1,4,4,4,2,1,5,1,2,2,1,3,4,4,3,3,2,3,4,3,3,4,3,3,1,3,2,3,3,5,3,3,1,4,2,3,2,3,3,4,4,1,3,4,4,2,2,3,4,4,3,3,4,3,2
"Poland",1996,2,7,1,3,2,1,2,0,1,9,37,37,37,52.25,46,0,9,1,2,1,NA,4,4,5,1,5,3,3,2,1,NA,2,8,6,1,8,1,1,NA,1,NA,NA,NA,NA,NA,NA,NA,NA,NA,NA,3,3,3,5,5,2,3,3,4,4,4,4,3,3,3,4,4,3,3,3,3,3,3,3,4,4,3,2,4,2,3,2,2,2,2,3,3,3,3,2,2,1,1,2,1,2,2,2,2,1,2,4,2,2,2,2,2,6,2,2,2,2,5,4,2,2,1,6,2,2,2,4,2,2,1,2,2,2,4,6,6,2,2,4,3,3,5,4,2,2,3,3,4,4,4,4,4,4,3,2,2,2,2,2,2,3,2,2,2,2,3,2,1,2,2,4,5,6,5,5,5,5,2,4,3,5,3,2,4,2,2,4,3,4,3,4,4,2,4,3,2,3,4,3,3,4,3,4,4,2,4,3,1,2,2,2,4,3,3,3,2,2,4,3,3,2,2,2,4,4,3,3,3,5,3,2,3,2,2
"Tsinghua",1996,2,7,2,2,2,1,0,0,2,0,37,37.1,36.9,30.580093383789,72,14,7,3,2,1,0,4,1,5,0,5,3,5,2,1,1,1,5,1,1,1,5,2,1,1,"ÍøÂç¹«»á",NA,NA,NA,NA,NA,NA,NA,NA,NA,4,4,4,4,5,2,1,4,2,4,3,3,4,3,2,3,3,4,3,4,3,3,4,2,4,3,2,4,4,2,4,5,4,5,2,5,2,2,2,3,2,3,2,3,2,3,2,4,6,3,5,7,2,6,4,3,4,2,3,3,4,2,2,5,2,2,2,6,3,2,6,7,5,4,2,2,3,2,6,2,2,4,3,3,2,4,3,3,3,4,3,3,3,4,3,5,7,6,5,5,4,2,3,2,3,5,4,3,2,2,2,4,2,3,2,3,4,3,2,4,2,4,4,3,4,3,2,1,2,2,2,5,4,2,4,5,4,4,3,3,2,2,4,4,4,3,4,4,3,2,4,3,2,3,1,4,2,4,4,5,3,3,3,4,4,3,4,5,4,3,2,4,2,4,3,4,4,2,3
"Serbia",1996,2,1,1,3,2,1,0,0,2,NA,37,36.9,37.1,44.818603515625,44,12,6,1,2,1,NA,4,2,5,NA,2,2,5,4,1,NA,2,7,1,NA,NA,2,1,NA,1,NA,NA,NA,NA,NA,NA,NA,NA,NA,NA,4,1,3,4,4,4,3,4,2,2,3,1,4,5,5,4,3,3,3,3,3,3,3,5,5,1,4,5,5,5,5,5,4,5,5,5,5,5,5,5,4,3,5,5,5,5,5,8,2,2,3,5,5,2,2,6,2,7,2,3,2,5,8,5,1,4,NA,7,1,3,1,1,6,1,4,NA,5,4,1,7,7,1,3,2,2,3,4,2,2,2,2,2,4,6,6,4,6,5,5,4,3,1,4,5,1,5,4,1,3,5,1,2,1,2,1,3,4,7,1,5,8,8,2,2,2,4,4,5,3,2,5,3,3,4,1,3,4,4,3,5,5,5,2,3,4,2,1,4,1,1,4,5,1,5,1,4,4,4,5,1,5,5,5,2,5,5,1,1,5,4,5,5,1,5,5,5,5,1,5
"Tsinghua",1996,2,7,2,2,2,1,8,0,2,0,37.05,37.2,36.9,30.580093383789,87,17,7,3,2,1,0,4,4,5,0,8,1,8,6,1,1,2,8,1,1,8,1,2,2,1,"½¡¿µ¾ãÀÖ²¿","ÃÀÊõÐ­»á",NA,NA,NA,7,4,NA,NA,NA,4,4,3,2,4,2,3,1,3,4,2,2,3,2,3,3,2,3,3,4,2,2,4,3,4,3,1,2,3,1,3,3,2,2,2,2,3,4,2,3,2,1,3,2,2,2,3,2,4,5,5,4,4,2,3,3,4,2,3,4,3,3,1,5,4,4,4,5,5,4,5,6,5,5,5,4,6,2,6,5,5,3,3,3,4,4,3,4,3,4,2,2,3,1,1,4,3,3,3,2,2,2,3,3,2,3,2,2,4,3,3,2,2,2,2,4,4,4,5,5,4,2,1,1,3,4,2,2,1,3,5,3,2,1,1,2,3,2,4,4,1,1,4,5,3,2,2,3,3,3,2,2,2,2,2,3,3,3,2,3,2,3,3,4,3,2,3,3,4,3,2,2,2,2,2,2,3,2,4
"Tsinghua",1996,2,7,1,3,2,1,12,0,2,0,37.05,37.1,37,30.580093383789,100,14,7,3,2,1,0,4,4,5,0,3,3,3,3,1,1,2,8,1,1,3,1,2,1,1,"×¨Òµ°à¼¶","Ñ§ÔºÀÏÊ¦","Ñ§Éú»á","ÇÞÊÒ",NA,7,3,2,3,NA,2,3,3,5,4,4,3,4,2,2,4,2,2,3,3,4,2,2,2,3,3,2,2,3,4,2,3,4,3,2,4,2,2,4,4,4,4,4,4,4,2,4,4,2,4,2,4,5,4,6,6,5,4,4,2,4,3,2,4,4,4,2,3,4,3,3,2,2,2,2,4,3,2,2,2,4,5,2,2,2,2,2,5,5,4,4,4,4,4,4,4,4,2,1,5,4,5,3,3,2,2,2,2,3,2,3,3,4,2,2,2,4,2,2,2,4,4,4,2,2,4,5,1,5,4,4,1,4,3,2,4,4,3,2,2,2,4,2,4,4,2,2,2,4,4,4,3,4,4,3,4,4,4,2,3,3,4,4,4,3,2,4,3,4,4,3,2,4,2,4,4,4,2,4,5,4,4,2,3
"Serbia",1996,2,7,1,4,2,1,8,0,2,NA,37.05,37.1,37,44.746704101562,83,4,6,1,2,1,NA,4,4,5,NA,6,3,7,7,2,1,2,8,1,NA,NA,2,1,NA,1,NA,NA,NA,NA,NA,NA,NA,NA,NA,NA,4,3,4,4,3,4,3,3,2,4,3,3,2,2,4,3,2,2,2,1,2,2,2,3,4,2,1,4,4,3,4,4,4,3,4,3,5,3,4,4,4,2,2,1,1,1,4,2,2,3,2,3,2,2,2,NA,5,NA,2,1,2,2,5,2,2,5,3,8,NA,3,5,2,3,NA,3,3,3,3,2,6,6,NA,NA,5,5,4,5,4,4,3,4,4,7,5,5,5,6,6,6,2,2,1,2,2,2,2,2,2,2,2,2,2,2,3,2,4,6,5,2,3,3,6,2,4,2,5,4,2,4,3,2,2,2,3,3,3,2,4,3,4,4,4,4,2,4,4,2,2,4,3,2,3,2,2,2,1,4,4,4,1,3,2,4,4,5,3,2,4,4,4,3,4,3,3,3,3,2,4,3
"UCSB",1996,2,7,1,3,2,1,2,0,2,NA,37.05555556,36.88888889,37.22222222,34.4329071,58,10,5,1,2,1,NA,4,2,4,1,3,1,4,2,1,NA,2,6,1,NA,NA,1,1,NA,2,"Hermanas Unidas","Sierra Madre Community Council",NA,NA,NA,6,4,NA,NA,NA,3,3,3,5,3,4,2,2,2,2,3,4,4,2,4,4,3,4,3,3,4,3,4,4,4,2,3,4,2,2,4,4,4,4,4,4,4,4,4,4,3,4,4,4,2,4,4,6,6,5,6,6,6,5,5,5,2,6,2,2,5,6,2,6,2,3,2,5,2,3,2,3,2,2,2,2,2,2,3,5,3,2,2,4,4,4,5,4,2,2,2,4,7,5,3,5,6,6,5,2,4,2,3,4,2,2,2,2,3,2,2,2,2,2,2,3,4,6,2,3,3,3,2,4,4,4,2,4,4,4,4,4,4,2,4,4,4,2,2,4,2,4,3,4,4,4,4,4,4,4,4,4,2,2,2,2,4,4,4,2,2,4,4,4,4,4,2,4,4,4,4,4,2,4,4,3,4,2,4
"Tsinghua",1996,2,7,1,2,2,1,2,0,2,0,37.1,37.2,37,30.580093383789,87,17,7,3,2,1,0,2,2,5,0,5,2,5,2,1,1,2,3,1,1,5,2,1,8,1,"Ö¾Ô¸ÕßÐ­»á",NA,NA,NA,NA,NA,NA,NA,NA,NA,5,5,4,3,5,5,2,4,2,3,4,4,4,2,1,2,2,3,2,4,2,1,5,1,3,3,2,4,3,2,2,2,2,2,4,4,4,4,3,4,2,1,3,2,2,1,2,5,3,1,2,4,3,3,2,6,2,4,3,5,2,2,3,3,4,2,2,4,3,2,4,3,2,2,3,2,2,3,2,4,4,3,3,4,4,4,4,4,4,3,3,4,4,3,4,3,4,4,3,1,1,2,2,1,1,3,2,2,1,1,2,2,2,2,3,3,3,5,2,3,2,2,3,4,4,3,2,3,3,1,3,4,2,2,2,2,2,2,1,3,1,2,1,3,4,3,4,4,4,3,4,4,2,2,2,3,4,4,5,2,1,4,3,4,3,2,2,3,3,2,2,4,2,2,3,3,3,4,2
"Tsinghua",1996,1,2,2,1,2,1,1,0,2,0,37.1,37,37.2,30.580093383789,71,16,7,3,2,1,0,4,3,5,0,7,3,6,6,1,1,1,8,1,1,1,8,2,2,1,"°à¼¶","na","na","na","na",10,NA,NA,NA,NA,3,3,2,4,4,4,2,2,2,2,4,1,2,4,5,5,3,3,2,4,4,4,4,5,4,3,5,4,5,4,4,4,5,4,4,5,5,5,5,5,4,4,5,5,5,3,5,6,6,6,7,6,4,6,6,2,4,5,4,6,5,6,6,6,6,5,2,3,2,2,2,2,2,3,2,2,2,2,4,2,2,2,5,4,4,4,4,4,4,5,5,5,5,2,2,6,7,7,7,4,3,4,4,2,4,3,2,4,4,4,2,2,2,4,2,3,5,7,4,4,5,6,2,2,5,4,2,4,4,5,5,4,2,4,4,4,4,4,4,4,4,4,3,5,5,5,5,5,3,4,5,4,2,2,2,4,4,4,4,3,2,4,4,4,4,4,3,4,4,3,4,4,2,4,5,3,3,4,3
"UCSB",1996,1,7,1,4,2,1,0,0,2,NA,37.11111111,37.16666667,37.05555556,34.4329071,82,12.22222222,5,1,2,1,NA,4,2,3,2,3,1,5,1,1,NA,2,1,3,1,8,1,1,NA,1,NA,NA,NA,NA,NA,NA,NA,NA,NA,NA,5,4,5,4,4,4,1,4,2,4,4,5,5,4,2,3,2,2,2,2,2,1,2,2,5,1,1,2,4,1,4,1,2,3,3,2,4,4,3,3,2,2,1,1,2,2,4,2,2,2,2,2,2,2,2,2,1,2,4,2,2,4,3,4,2,3,2,5,3,3,3,3,3,2,2,3,3,3,2,6,7,3,3,4,5,5,5,5,4,4,4,4,4,4,4,4,3,3,2,2,2,3,2,2,2,2,3,4,2,2,2,1,3,2,3,4,4,3,4,2,4,3,2,2,2,4,4,3,3,3,4,2,2,3,2,3,4,2,2,4,3,3,4,4,2,3,4,3,3,3,3,3,2,2,2,4,2,3,4,2,2,4,4,4,4,2,4,2,4,3,3,1,2,4,3,4,4,2,3
"SMU",1996,1,1,2,2,2,1,1,0,2,NA,37.15,37.5,36.8,1.2931060791016,70,26,5,1,2,1,NA,4,2,5,NA,6,3,8,6,2,8,2,6,1,NA,NA,1,1,NA,1,NA,NA,NA,NA,NA,NA,NA,NA,NA,NA,3,2,3,3,3,3,1,3,2,3,4,2,4,3,4,3,3,3,2,3,3,4,3,2,3,3,3,3,4,3,4,3,4,3,3,3,4,4,3,4,3,3,3,3,3,3,3,6,6,6,6,7,4,6,4,2,4,6,5,5,4,4,5,6,4,6,2,3,2,2,3,3,2,2,2,2,3,3,4,3,3,4,2,5,5,5,5,5,4,4,4,4,6,7,7,7,6,6,6,3,5,3,3,4,3,4,4,3,3,4,2,3,2,3,2,4,7,6,1,6,6,6,3,3,5,3,2,2,3,4,3,2,4,3,4,5,2,3,2,3,3,3,3,3,4,3,3,4,4,3,4,3,1,1,3,2,1,4,4,3,3,3,3,3,4,2,3,3,3,3,3,3,2,3,3,4,3,3,3
"Serbia",1996,2,2,1,4,2,1,3,0,2,NA,37.2,37.3,37.1,44.818603515625,61,1,6,1,2,1,NA,4,4,4,2,3,1,4,4,1,NA,2,8,1,NA,NA,3,1,NA,1,NA,NA,NA,NA,NA,NA,NA,NA,NA,NA,3,2,2,4,3,3,3,2,3,3,3,3,3,4,4,5,3,3,3,3,5,3,3,4,5,3,4,3,4,2,4,3,2,3,2,4,4,4,4,4,3,2,2,2,3,3,4,2,3,1,3,8,3,5,2,5,2,5,2,2,2,3,2,4,5,3,NA,8,NA,3,3,2,NA,NA,3,NA,NA,NA,2,7,6,NA,NA,4,3,5,4,4,4,4,5,5,5,3,4,3,2,2,3,3,3,2,3,2,2,2,2,4,3,3,3,2,2,4,2,1,5,6,3,3,3,4,3,3,2,4,1,2,1,2,2,5,4,3,1,4,4,4,4,4,3,4,3,3,4,3,1,2,2,4,4,4,2,4,1,2,2,4,4,1,2,4,3,4,4,2,2,4,5,3,3,4,3,5,4,4,3,1,4
"Serbia",1996,2,7,1,3,2,1,3,0,1,17,37.3,37.3,37.3,44.818603515625,61,1,6,1,2,1,NA,4,2,5,NA,2,1,3,3,1,NA,2,4,1,NA,NA,1,1,NA,1,NA,NA,NA,NA,NA,NA,NA,NA,NA,NA,2,1,1,5,4,3,1,1,2,2,2,1,2,4,3,5,4,4,5,4,5,4,5,3,5,3,4,2,4,4,2,2,2,5,4,4,3,2,2,2,2,1,3,2,1,2,2,2,2,1,2,4,5,3,2,1,2,NA,1,2,5,2,1,7,1,8,4,5,NA,8,2,2,NA,1,NA,4,1,NA,2,6,5,NA,5,4,5,5,4,4,5,4,4,2,3,5,4,3,6,4,4,4,4,3,3,5,4,5,1,2,2,2,1,1,2,3,1,4,6,4,1,2,2,4,4,5,5,2,1,3,5,3,2,5,5,3,1,2,5,5,3,4,2,2,2,1,2,3,1,3,1,5,5,2,5,3,2,1,1,4,3,1,2,5,4,2,4,2,2,3,4,4,3,2,2,2,2,1,1,5,1
"Tsinghua",1996,1,7,2,3,2,1,0,0,2,0,38.225,39.4,37.05,30.580093383789,74,16,7,3,2,1,0,4,2,5,0,4,1,5,1,1,1,2,8,1,2,2,1,2,1,1,"ÐÄÀí×ÉÑ¯Ð¡×é","Ñ§ÊõÌÖÂÛÐ¡×é",NA,NA,NA,6,NA,NA,NA,NA,3,2,4,4,2,4,2,4,3,4,3,4,3,3,2,5,2,2,2,4,2,2,2,4,4,2,2,3,2,2,2,2,2,3,2,2,2,2,2,2,2,2,2,2,2,2,2,5,2,3,5,6,3,3,4,5,2,2,3,5,4,3,6,4,2,4,1,2,6,2,2,2,1,1,3,2,2,2,2,1,2,1,2,4,3,4,4,3,3,4,3,3,6,4,4,6,7,5,5,1,1,2,1,2,3,3,2,4,1,2,1,2,1,3,1,4,6,6,5,5,1,5,4,4,4,5,1,2,4,5,2,5,1,2,4,4,2,4,2,2,3,5,4,4,5,5,4,4,3,4,4,3,1,3,1,1,1,4,3,3,2,4,3,5,4,3,3,4,4,4,3,5,2,4,5,5,4,3,2
"Oxford",1997,2,7,2,3,2,1,0,0,2,NA,35.3,35,35.6,51.75,74,2.777777778,5,1,2,1,NA,4,4,5,NA,3,2,4,3,2,8,2,8,1,NA,NA,8,1,NA,1,NA,NA,NA,NA,NA,NA,NA,NA,NA,NA,3,2,4,4,4,4,2,4,2,3,4,2,4,2,3,3,3,2,3,3,3,2,3,3,4,2,3,2,4,4,4,4,3,4,4,4,2,2,3,4,2,2,2,3,2,2,2,4,4,4,3,4,3,4,4,4,4,3,4,4,3,5,4,6,3,5,4,5,4,4,4,4,4,4,4,4,4,4,4,4,5,4,4,4,3,4,4,3,3,3,3,4,5,5,5,4,4,3,3,2,4,1,3,3,2,2,3,4,2,2,2,2,4,4,4,4,5,4,3,4,2,1,2,4,4,4,2,2,2,2,2,5,4,1,4,2,2,3,4,4,2,2,4,4,3,2,3,3,3,2,3,4,3,4,3,2,5,4,4,4,2,3,2,4,4,2,2,4,4,2,2,4,3,4,3,3,2,2,4
"VCU",1997,2,3,2,3,2,1,0,0,1,1,35.33333333,35.27777778,35.38888889,37.553802490234,74,16.66666667,5,1,2,1,NA,4,4,5,NA,2,2,3,3,1,NA,2,4,1,NA,NA,1,1,NA,1,NA,NA,NA,NA,NA,NA,NA,NA,NA,NA,2,3,2,1,2,2,1,2,1,1,4,3,2,3,3,5,2,3,2,4,3,2,3,4,4,2,4,2,4,4,4,4,4,4,4,4,5,4,5,5,4,3,4,4,4,3,4,6,6,6,6,6,7,6,6,2,3,5,6,6,6,6,6,6,6,6,6,6,6,6,6,6,6,6,6,5,6,6,6,6,6,2,6,4,4,4,4,4,3,3,4,4,1,2,2,2,2,2,2,2,4,4,3,4,4,4,4,2,4,2,3,3,2,4,3,3,3,2,2,2,2,2,2,2,2,5,4,4,2,4,2,4,2,2,4,4,4,2,2,2,2,2,2,4,4,4,4,4,2,3,4,4,2,4,2,2,2,2,2,2,2,2,4,2,2,2,2,4,2,2,2,2,2,2,2,4,2,2,2
"METU",1997,1,7,2,3,2,1,28,0,2,NA,35.4,35.1,35.7,39.911697387695,64,6,3,2,2,1,NA,4,4,5,NA,2,2,4,4,1,NA,2,8,1,NA,NA,1,1,NA,2,"e-spor toplulu?u",NA,NA,NA,NA,5,NA,NA,NA,NA,5,4,1,1,1,3,1,1,1,4,1,1,1,5,4,3,4,4,5,4,5,4,4,3,5,4,5,2,2,2,4,2,2,3,3,2,2,2,2,2,2,2,2,2,2,2,2,3,2,2,5,6,4,2,2,2,5,2,2,1,2,2,5,6,1,2,2,2,2,2,2,2,2,2,2,2,2,2,2,2,2,2,2,5,5,5,5,5,3,5,4,4,6,5,5,5,6,6,6,2,4,4,4,4,2,4,2,2,5,2,3,4,4,3,2,4,6,4,5,2,5,5,4,2,5,4,1,1,3,3,2,5,5,2,4,5,4,4,2,5,2,4,5,5,3,2,2,4,3,5,4,4,1,1,1,1,2,3,1,1,5,4,4,4,4,4,3,4,4,4,4,4,2,4,2,4,2,1,1
"METU",1997,2,7,1,1,1,1,NA,NA,2,NA,35.7,35.1,36.3,39.911697387695,70,3,3,2,1,1,NA,4,4,4,1,7,3,4,2,1,NA,2,8,1,NA,NA,6,1,NA,2,"Japon K¨¹lt¨¹r Toplulu?u",NA,NA,NA,NA,4,NA,NA,NA,NA,2,3,2,4,3,2,1,1,1,1,4,2,2,4,5,5,3,3,3,3,4,4,2,4,4,4,3,2,2,2,2,3,2,4,2,2,4,4,4,4,2,2,1,1,2,2,4,7,6,5,3,7,7,5,5,7,2,7,2,5,6,4,1,6,1,2,1,1,1,1,2,3,1,2,1,1,1,1,2,1,1,1,2,4,4,4,4,2,3,4,4,4,6,7,7,6,6,6,7,2,4,2,2,2,4,4,2,2,2,2,2,2,2,2,1,5,8,7,6,6,7,8,2,2,4,4,2,4,2,4,4,5,5,1,3,5,5,3,4,3,5,5,4,5,5,5,5,5,4,4,5,4,1,3,1,2,3,2,2,1,4,2,2,4,4,5,2,4,2,5,5,5,2,4,5,5,4,2,5
"Serbia",1997,2,6,2,2,2,1,3,0,2,NA,35.7,35.9,35.5,44.818603515625,61,1,6,1,2,1,NA,4,4,5,NA,4,4,5,4,1,NA,2,8,3,4,2,2,2,8,2,"BIMUN","Casovi engleskog",NA,NA,NA,7,4,NA,NA,NA,4,2,2,2,2,4,1,1,2,2,3,2,2,5,5,5,3,2,2,3,4,3,3,5,5,2,4,4,4,3,4,3,3,3,3,4,4,4,4,4,4,2,3,4,3,3,4,5,8,8,7,7,7,8,7,6,5,7,5,7,8,7,8,8,5,8,3,8,3,8,8,5,1,3,6,NA,6,3,8,5,3,3,NA,3,2,4,3,3,3,3,4,4,6,5,5,4,7,7,6,4,4,4,3,4,4,4,4,3,4,4,1,2,1,2,1,5,4,4,1,4,4,4,2,4,3,4,3,4,3,3,3,5,3,3,2,4,4,4,4,3,4,4,2,3,4,2,2,4,2,3,5,5,3,4,2,2,4,3,3,4,3,2,3,4,4,3,2,4,4,3,3,4,3,5,4,3,3,2,4
"UCSB",1997,1,6,1,4,2,1,2,0,2,NA,35.72222222,36,35.44444444,34.4329071,80,8.333333333,5,1,2,1,NA,4,2,5,NA,3,1,7,7,1,NA,2,5,1,NA,NA,1,1,NA,1,NA,NA,NA,NA,NA,NA,NA,NA,NA,NA,4,2,2,3,3,4,2,3,2,3,4,2,3,3,3,2,3,5,3,4,3,3,3,2,2,3,3,2,4,1,4,3,2,4,2,4,2,2,3,2,1,2,2,2,2,2,2,5,5,5,3,6,6,6,4,3,5,2,2,5,4,6,4,5,5,5,4,6,3,6,6,6,2,2,2,3,2,2,4,3,3,2,2,5,5,4,5,5,3,2,4,4,4,2,3,2,2,1,3,3,4,1,3,4,4,4,4,2,3,2,1,1,1,4,3,2,2,2,1,1,1,1,3,4,5,4,1,1,4,3,2,5,3,2,4,5,4,4,2,5,2,4,3,4,4,3,2,4,4,2,3,2,4,4,2,3,3,4,4,2,3,4,4,3,4,2,3,4,4,3,2,4,3,3,4,2,4,2,3
"Oxford",1997,1,7,1,4,2,1,4,0,2,NA,35.75,35,36.5,51.75,71,1.666666667,5,1,2,1,NA,2,2,5,NA,1,NA,4,3,2,8,2,8,1,NA,NA,3,1,NA,1,NA,NA,NA,NA,NA,NA,NA,NA,NA,NA,2,2,4,4,4,4,1,4,2,3,3,3,4,2,2,3,2,2,2,2,3,2,3,5,5,3,3,4,4,1,4,2,2,3,2,2,2,2,2,2,1,1,1,4,2,4,2,4,1,2,4,2,5,1,7,2,1,6,2,2,2,5,1,7,1,3,2,6,7,5,1,6,4,4,2,3,1,2,5,7,6,5,3,5,2,5,4,2,3,4,5,4,6,3,2,3,7,7,7,3,4,1,4,4,2,3,4,3,4,2,1,1,4,5,2,3,3,2,2,2,1,2,1,2,2,5,4,5,2,2,3,3,1,1,1,2,4,1,5,3,2,3,4,4,3,2,2,4,1,3,4,2,3,4,2,2,2,3,4,2,1,4,3,1,4,1,1,3,3,1,1,4,3,4,1,4,4,2,1
"UCSB",1997,2,7,2,2,2,1,4,1,2,NA,35.75,36,35.5,34.4329071,56,6.666666667,5,1,2,1,NA,4,4,5,NA,8,3,6,6,1,NA,2,8,1,NA,NA,3,1,NA,1,NA,NA,NA,NA,NA,NA,NA,NA,NA,NA,4,3,2,2,2,3,2,2,4,4,5,3,2,3,3,4,2,3,4,2,3,2,3,4,3,3,3,2,4,3,3,3,4,2,3,3,3,4,3,2,3,2,4,2,3,3,3,4,5,4,5,3,4,6,2,5,5,3,3,5,3,2,4,6,4,3,3,5,3,5,5,3,5,4,4,6,5,5,5,6,2,3,4,4,2,3,3,4,2,2,3,3,5,7,5,4,4,5,4,4,3,3,4,4,4,3,3,2,3,2,2,3,3,3,2,4,6,4,4,4,5,4,3,4,4,4,1,4,4,2,4,5,2,3,3,4,4,4,2,4,3,4,3,4,3,3,3,3,4,2,3,3,2,4,3,2,3,4,3,2,3,4,3,3,4,3,2,4,2,2,3,3,4,2,4,3,3,4,4
"Oxford",1997,2,7,1,4,2,1,15,0,2,NA,35.85,35,36.7,51.75,88,-2.222222222,5,1,1,1,NA,4,4,4,4,4,4,6,6,2,1,2,8,1,NA,NA,4,1,NA,1,NA,NA,NA,NA,NA,NA,NA,NA,NA,NA,4,3,3,3,2,4,2,3,2,4,3,4,2,3,4,3,2,1,1,2,4,2,2,4,4,1,3,2,3,2,4,2,2,4,1,4,4,3,4,4,4,2,2,2,2,1,3,1,1,1,1,1,3,1,1,1,1,3,1,2,3,1,2,3,1,1,1,3,1,1,1,2,1,1,1,1,1,1,1,1,3,1,1,4,3,4,3,2,2,2,3,3,6,5,6,3,6,6,6,3,2,2,2,2,2,2,2,1,2,4,3,4,2,3,2,3,4,5,4,4,2,6,1,2,2,5,5,5,4,2,5,4,3,1,1,2,3,1,4,3,4,4,4,2,4,5,5,5,2,5,4,2,2,4,3,3,2,5,4,2,2,4,3,3,2,4,2,3,5,5,5,5,2,4,2,5,4,2,4
"Oxford",1997,2,6,2,2,2,1,2,0,1,1,35.95,35.3,36.6,51.75,71,1.666666667,5,1,2,1,NA,4,4,5,NA,4,2,4,4,1,NA,2,6,1,NA,NA,1,1,NA,1,NA,NA,NA,NA,NA,NA,NA,NA,NA,NA,3,3,2,4,1,2,1,2,2,3,2,4,5,3,2,2,3,2,1,2,2,2,2,2,4,4,2,2,4,2,4,4,1,2,4,4,5,5,5,5,4,1,2,2,3,2,5,5,5,5,6,4,4,2,5,5,5,4,4,3,2,6,6,6,5,5,1,7,5,7,2,4,5,3,3,2,5,1,4,2,7,3,5,5,5,5,5,5,5,4,5,5,7,7,7,7,5,5,6,4,2,2,1,4,2,5,5,3,2,3,1,2,2,3,1,4,4,3,1,3,5,1,1,3,2,4,4,5,2,2,4,4,3,1,1,4,5,1,5,5,3,4,5,3,4,4,3,4,5,3,4,5,4,1,4,1,3,3,4,2,1,4,5,4,2,2,1,1,5,4,5,5,4,3,4,5,4,1,5
"VCU",1997,1,4,2,4,2,1,0,0,2,NA,36,35.77777778,36.22222222,36.89289855957,99,11.11111111,5,1,2,1,NA,4,2,5,NA,7,2,7,1,1,NA,2,3,1,NA,NA,1,1,NA,1,NA,NA,NA,NA,NA,NA,NA,NA,NA,NA,4,4,2,4,3,3,3,3,3,4,3,3,2,3,3,4,4,3,3,4,2,3,2,4,2,4,2,4,3,4,3,2,2,3,4,3,3,3,2,2,2,3,4,4,2,4,3,5,4,3,3,4,4,4,2,4,4,4,2,2,3,3,5,3,3,5,4,4,5,5,3,4,4,5,5,5,6,5,2,6,5,4,5,4,3,3,3,2,4,4,5,4,3,2,2,2,2,2,2,4,4,2,3,4,2,2,3,2,2,4,2,3,2,2,3,3,4,3,3,3,4,2,3,2,2,4,4,3,4,4,3,3,3,4,4,4,4,2,2,2,2,3,3,3,3,4,4,4,4,3,3,3,4,4,4,4,4,2,3,2,2,4,4,4,4,3,3,2,2,3,3,4,2,4,2,4,3,3,3
"Oxford",1997,2,7,2,3,2,1,2,0,2,NA,36,35,37,51.75,88,-2.222222222,5,1,2,1,NA,4,4,5,NA,3,2,5,5,2,1,2,8,3,1,5,2,1,NA,1,NA,NA,NA,NA,NA,NA,NA,NA,NA,NA,3,2,2,1,3,4,1,1,2,2,3,2,3,2,2,5,4,2,2,3,4,3,5,2,5,3,4,3,5,3,4,2,2,4,3,5,5,4,4,4,4,2,3,2,3,2,4,7,7,6,5,5,6,7,6,7,4,7,2,4,7,7,7,7,2,2,2,3,1,2,5,3,2,4,2,2,1,3,2,5,1,1,5,4,4,2,5,5,4,5,3,3,4,5,6,3,7,5,5,4,3,2,3,4,4,4,4,2,2,3,4,4,2,2,1,5,6,7,4,4,2,2,2,4,3,4,4,4,4,4,3,2,2,2,1,3,3,2,5,5,2,4,3,4,4,5,5,4,2,4,3,3,3,2,4,2,3,3,5,5,2,3,3,3,3,3,2,3,4,3,4,4,3,3,4,3,2,2,4
"UCSB",1997,1,7,2,4,2,1,4,0,2,NA,36.02777778,35.88888889,36.16666667,34.4329071,84,10.55555556,5,1,2,1,NA,4,2,5,NA,8,1,3,3,1,NA,2,2,1,NA,NA,1,1,NA,2,"Rock Climbing Club",NA,NA,NA,NA,2,NA,NA,NA,NA,4,1,1,4,1,1,1,2,4,4,4,1,5,3,2,5,2,3,2,3,3,3,2,2,5,1,2,1,1,1,4,2,2,1,3,4,1,1,1,1,1,1,1,1,1,5,1,2,2,2,2,4,2,2,2,2,7,2,2,1,2,2,2,7,2,7,7,4,2,3,5,2,5,3,6,2,7,1,6,3,6,2,6,5,5,5,5,5,1,1,1,1,6,6,5,5,6,5,6,2,1,1,2,1,1,1,2,1,1,1,1,1,5,5,1,4,4,1,1,1,5,2,4,5,5,4,2,2,2,5,3,4,3,5,4,5,3,4,3,2,2,2,5,5,4,1,1,1,4,3,1,1,2,4,1,1,4,5,5,5,1,1,5,5,1,1,3,4,5,1,1,1,5,5,1,4,3,3,4
"Serbia",1997,2,4,2,4,2,1,0,0,2,NA,36.05,35.7,36.4,44.818603515625,65,8,6,1,2,1,NA,4,4,5,NA,3,3,6,6,1,NA,2,8,1,NA,NA,2,1,NA,1,NA,NA,NA,NA,NA,NA,NA,NA,NA,NA,4,2,4,4,4,3,3,4,3,3,3,3,4,3,4,3,4,3,2,2,3,2,2,4,5,2,3,4,3,4,4,4,2,4,2,4,4,4,4,4,3,4,4,4,2,3,4,5,5,3,5,5,8,5,5,NA,2,5,2,2,2,3,2,5,8,3,3,8,NA,3,5,2,3,NA,NA,NA,3,NA,2,6,6,NA,NA,4,4,3,5,4,4,4,4,5,5,6,3,3,4,4,4,3,3,1,3,3,1,2,2,4,2,2,2,2,2,3,2,4,4,6,1,2,3,3,2,4,3,4,2,4,4,2,4,4,3,4,4,2,3,2,4,3,3,4,4,4,4,4,2,2,1,3,4,4,2,2,2,4,5,4,3,2,2,4,3,4,4,2,2,4,3,4,3,4,2,4,4,4,3,3,2
"UCSB",1997,1,6,1,3,2,1,NA,0,2,NA,36.05555556,35.88888889,36.22222222,34.50210571,84,7.222222222,5,1,2,1,NA,4,4,5,NA,8,5,5,3,2,1,2,5,1,NA,NA,1,1,NA,1,NA,NA,NA,NA,NA,NA,NA,NA,NA,NA,2,4,4,4,4,3,4,3,4,3,2,4,4,3,3,3,3,3,3,3,3,3,3,3,3,3,3,3,3,3,3,3,3,3,3,3,3,3,3,3,3,2,3,3,3,3,3,3,3,3,2,3,2,4,2,1,2,6,3,5,3,4,1,3,2,3,6,2,5,2,2,3,6,1,3,5,6,5,1,6,5,5,5,4,4,4,4,4,4,4,4,4,6,3,3,4,3,4,3,4,4,3,2,4,4,3,3,4,3,3,2,4,3,3,3,2,2,3,2,2,2,2,3,4,4,4,2,3,3,4,4,4,2,3,4,4,4,4,1,2,3,3,4,5,3,3,2,4,4,3,5,4,2,3,3,2,4,3,3,2,2,4,4,3,3,3,3,3,3,4,3,3,3,3,4,4,4,3,2
"Bamberg",1997,2,7,2,4,2,1,1,0,2,NA,36.15,36.1,36.2,52.083297729492,51,-7,1,1,2,1,NA,4,4,5,NA,8,5,5,5,2,1,2,6,1,NA,NA,2,1,NA,1,NA,NA,NA,NA,NA,NA,NA,NA,NA,NA,2,2,3,3,2,3,2,3,2,3,3,3,3,2,3,3,3,3,2,3,3,2,3,3,2,2,2,4,4,2,4,2,2,3,2,4,2,3,2,2,2,1,2,3,2,2,2,4,3,3,5,3,2,1,3,5,2,5,2,3,2,5,2,4,2,4,2,4,3,3,2,2,3,4,4,4,4,5,2,6,4,4,3,4,3,3,4,2,3,3,4,2,5,5,5,4,4,4,4,4,3,1,4,2,2,4,3,4,2,4,3,2,2,4,2,3,4,3,3,2,2,3,4,3,3,4,2,2,2,2,2,4,2,2,2,3,3,2,3,2,2,4,4,4,4,3,2,3,3,2,2,2,2,2,2,2,4,4,3,3,2,3,4,3,2,2,2,3,4,4,3,3,4,5,2,2,3,2,2
"Bamberg",1997,2,7,2,4,2,1,4,0,2,NA,36.15,35.9,36.4,49.436096191406,68,1,1,1,2,1,NA,4,4,5,NA,8,1,8,6,2,1,2,8,1,NA,NA,2,1,NA,2,"Hochschulsport",NA,NA,NA,NA,10,NA,NA,NA,NA,1,1,3,3,1,2,1,4,2,2,3,1,1,4,5,5,3,3,4,3,4,3,3,5,5,4,5,5,4,4,5,5,4,4,4,5,5,4,4,4,4,3,4,4,2,4,4,7,6,7,7,6,7,7,7,7,6,7,6,5,6,7,5,6,2,4,1,7,2,5,1,2,2,1,2,3,1,2,1,6,2,1,6,4,4,3,4,5,4,3,4,5,7,7,7,7,7,6,7,5,5,4,4,5,5,5,5,3,5,5,2,1,2,2,1,5,7,7,6,6,6,6,4,5,3,5,1,1,3,5,1,5,5,3,5,4,4,3,1,3,3,5,4,5,3,5,4,4,3,4,4,4,2,3,2,2,4,4,4,2,1,5,2,4,3,1,4,3,5,2,1,4,1,3,4,4,4,1,4
"Kassel",1997,2,6,2,3,2,1,0,0,2,NA,36.2,36.2,36.2,49.9873046875,77,5,1,1,2,1,NA,4,4,5,NA,8,3,8,8,1,NA,2,8,1,NA,NA,1,2,2,1,NA,NA,NA,NA,NA,NA,NA,NA,NA,NA,4,4,5,4,3,3,4,4,4,4,4,5,4,2,3,3,3,3,3,3,3,3,2,3,3,2,3,3,2,2,3,2,2,2,2,2,2,2,2,2,2,2,2,2,2,2,2,2,2,2,2,2,3,2,2,4,2,2,2,2,2,2,2,2,2,2,2,6,2,6,2,2,2,6,2,2,3,4,2,6,6,2,2,4,4,4,4,4,4,3,4,4,5,5,5,5,4,4,4,2,2,1,2,2,2,2,2,1,2,2,2,1,2,2,2,5,7,5,6,3,4,4,3,3,3,4,4,2,3,3,3,3,2,3,2,3,3,2,2,2,2,5,2,2,5,5,4,4,3,3,4,4,2,2,2,2,2,3,3,2,2,2,2,4,3,2,2,5,4,4,5,4,1,3,5,2,3,3,3
"METU",1997,2,7,2,4,2,1,15,0,2,NA,36.2,35.8,36.6,NA,68,5,3,2,2,1,NA,4,4,5,NA,8,3,3,3,1,NA,2,8,1,NA,NA,1,1,NA,1,NA,NA,NA,NA,NA,NA,NA,NA,NA,NA,5,1,1,5,4,4,1,3,1,1,3,1,1,3,4,4,1,2,4,3,4,3,3,3,5,4,4,5,2,2,2,5,2,5,4,5,5,4,5,5,1,2,1,1,4,1,5,7,2,4,4,7,7,5,4,2,4,7,4,4,1,4,6,3,4,5,4,4,4,6,4,4,4,7,3,1,7,4,5,4,4,1,4,5,5,5,5,5,5,5,5,5,7,7,7,7,7,7,7,1,5,1,3,5,1,5,4,1,4,2,1,5,1,5,1,5,7,7,2,5,7,1,4,1,5,5,1,3,5,5,2,5,5,5,5,5,3,5,3,5,3,4,1,2,5,3,3,4,5,4,4,4,2,1,1,1,5,3,1,4,5,2,1,5,5,2,5,5,1,3,1,2,1,5,5,3,1,1,5
"UCSB",1997,2,7,2,3,2,1,0,0,2,NA,36.22222222,36.33333333,36.11111111,32.78309631,71,16.11111111,5,1,2,1,NA,4,2,5,NA,2,2,1,2,1,NA,2,1,1,NA,NA,1,1,NA,1,NA,NA,NA,NA,NA,NA,NA,NA,NA,NA,4,3,2,4,3,4,2,2,2,1,3,4,3,4,4,5,2,3,3,3,4,2,2,4,4,3,4,3,5,4,3,3,3,4,5,4,3,3,2,3,2,2,2,3,3,2,3,4,4,4,4,4,4,4,4,4,4,4,4,4,4,4,4,7,4,4,4,6,4,4,6,1,4,7,4,4,4,4,4,4,4,4,4,4,4,4,4,4,5,4,5,5,4,4,4,4,5,5,5,3,4,3,4,4,4,4,4,4,3,2,2,4,2,2,3,5,6,5,1,4,6,2,3,3,4,3,2,2,2,2,3,5,4,2,3,4,4,3,3,4,2,2,3,3,4,2,3,3,4,3,3,4,3,2,3,3,4,3,3,2,2,4,2,3,4,3,3,4,4,4,3,3,3,3,3,3,3,2,3
"Bamberg",1997,2,7,2,4,2,1,1,0,2,NA,36.25,36.4,36.1,48.776000976562,65,2,1,1,2,1,NA,4,4,5,NA,8,2,6,5,1,NA,2,8,1,NA,NA,2,1,NA,2,"Reitverein",NA,NA,NA,NA,5,NA,NA,NA,NA,2,3,4,3,3,3,2,3,4,4,3,4,4,2,3,4,4,2,4,3,3,4,4,3,4,2,2,2,2,1,5,4,2,2,2,4,4,4,2,3,2,1,2,2,1,2,2,4,4,4,4,4,5,2,4,4,4,4,4,4,2,4,4,2,4,2,4,4,3,5,6,2,4,3,3,4,4,4,2,4,5,2,4,4,4,4,4,5,4,4,5,5,5,4,5,4,4,4,4,2,2,1,3,2,3,4,2,2,2,2,2,1,2,3,1,4,6,6,3,3,2,2,3,4,2,4,1,2,2,2,2,5,4,1,2,4,4,1,2,2,2,4,3,3,4,5,4,3,3,4,3,3,2,2,3,2,3,4,4,1,2,4,3,3,5,3,1,4,4,3,3,2,2,1,4,3,3,2,4
"UCSB",1997,1,7,2,3,2,1,52,0,1,0,36.25,36.22222222,36.27777778,34.4329071,57,6.111111111,5,1,2,1,NA,4,2,5,NA,3,1,4,3,1,NA,2,8,1,NA,NA,5,1,NA,1,NA,NA,NA,NA,NA,NA,NA,NA,NA,NA,3,3,3,2,1,3,2,2,1,1,3,4,4,3,4,5,2,3,2,3,2,2,3,5,5,3,3,4,2,4,4,4,3,5,3,4,4,4,4,4,3,2,3,3,2,2,4,2,2,4,4,2,2,1,2,4,2,4,4,4,2,1,4,4,1,4,4,4,4,4,2,4,4,4,4,6,4,4,2,4,4,4,6,3,3,3,4,4,2,2,3,2,6,1,1,1,1,1,1,4,4,2,4,2,3,3,3,3,3,2,3,3,3,4,2,3,3,3,2,2,3,2,2,3,4,4,1,4,3,3,4,4,2,2,4,4,4,4,4,4,3,4,3,3,4,4,4,4,4,4,3,3,3,2,3,2,4,4,3,2,2,3,3,3,3,2,2,4,4,4,3,3,3,4,3,2,3,2,2
"METU",1997,2,7,1,3,2,1,0,0,2,NA,36.3,36.1,36.5,39.911697387695,70,3,3,2,2,1,NA,4,4,4,4,8,5,5,5,1,NA,2,8,1,NA,NA,1,1,NA,2,"THBT",NA,NA,NA,NA,20,NA,NA,NA,NA,4,4,4,4,4,3,2,3,3,2,4,3,3,3,3,3,2,2,2,2,3,2,2,4,4,3,3,4,4,4,4,4,4,4,4,4,4,4,4,4,4,4,4,4,4,2,4,7,3,5,6,6,6,2,6,6,2,7,1,4,2,2,6,2,2,1,1,2,2,2,2,2,3,2,2,2,2,2,2,3,2,1,3,5,4,4,4,5,5,5,5,5,4,6,6,6,5,4,4,2,4,2,3,4,2,4,2,2,3,3,2,2,2,2,2,5,7,6,2,4,4,4,2,2,5,5,3,2,4,4,5,4,5,2,4,5,4,2,2,3,4,4,4,4,4,4,4,5,5,3,5,5,1,1,3,2,4,3,4,2,2,4,3,3,3,5,1,4,4,4,3,4,1,5,4,4,3,1,4
"UCSB",1997,2,6,1,2,2,1,3,0,1,5,36.33333333,36.22222222,36.44444444,34.4329071,84,7.222222222,5,1,2,1,NA,4,4,5,NA,7,4,4,4,1,NA,2,4,3,8,4,1,1,NA,2,"social club","IORG","na","na","na",4,2,0,0,0,2,1,1,1,1,1,2,1,1,3,2,2,4,5,5,5,3,4,2,3,5,3,4,5,2,3,5,5,5,2,5,5,4,4,4,5,3,5,3,5,3,5,5,4,3,5,3,5,6,5,5,3,5,7,6,5,2,7,4,5,6,7,7,6,6,5,7,4,4,4,6,6,2,4,3,2,3,3,6,5,4,3,3,4,3,4,2,3,2,2,3,2,3,6,5,5,2,3,3,2,3,2,4,3,2,2,3,1,2,4,2,3,1,2,4,1,1,1,1,1,1,1,2,5,4,3,1,2,3,5,3,5,5,3,4,5,3,3,2,4,4,4,4,5,2,5,3,3,2,1,1,1,2,5,3,2,1,3,3,4,4,2,3,4,2,5,4,3,4,5,3,4,3,2,3,4,2,2,4
"Tsinghua",1997,2,7,2,2,2,1,0,0,2,0,36.35,36.8,35.9,30.580093383789,88,14,7,3,2,1,0,4,4,5,0,8,1,1,1,1,1,2,2,1,1,1,1,2,1,2,"na","na","na","na","na",NA,NA,NA,NA,NA,1,1,1,3,3,5,1,1,1,1,3,2,1,4,2,4,4,4,4,2,4,3,4,2,3,4,2,2,2,2,3,2,2,2,4,4,4,4,4,4,4,3,3,3,3,2,3,6,1,6,6,6,6,1,6,2,1,1,1,6,1,7,1,7,1,6,2,1,2,6,6,6,1,1,2,2,7,1,6,1,1,1,2,5,5,5,5,5,5,5,5,5,4,2,2,5,5,5,5,3,4,3,3,4,4,4,3,2,4,3,4,4,2,4,3,5,7,4,7,6,6,6,2,2,3,3,3,3,3,3,3,2,2,2,2,2,2,2,2,2,1,1,4,4,2,1,1,2,5,2,2,5,2,2,2,2,2,2,2,2,2,4,4,4,4,2,2,4,4,1,1,1,4,2,2,4,4,2,4
"Tsinghua",1997,1,7,1,2,2,1,0,0,1,1,36.35,36.2,36.5,30.580093383789,87,17,7,3,2,1,0,4,4,5,0,8,3,5,3,1,1,1,5,3,1,1,5,1,3,2,"·ÖÍÅÎ¯",NA,NA,NA,NA,7,NA,NA,NA,NA,2,3,3,2,2,2,2,4,4,4,2,4,4,2,2,2,4,4,4,4,2,4,4,2,2,4,2,2,4,4,2,2,4,3,3,4,4,4,2,2,3,4,2,4,3,3,2,5,3,5,5,3,5,4,3,3,4,4,4,5,3,3,4,5,3,2,5,6,2,5,2,5,3,2,4,4,4,3,3,7,4,4,5,2,2,2,2,2,2,2,2,2,5,3,3,3,3,3,5,3,3,3,3,3,3,3,3,3,3,3,3,3,3,3,3,2,2,4,2,3,3,5,3,3,4,4,2,3,3,4,4,1,2,3,2,2,4,4,3,3,3,2,3,4,4,3,3,2,2,2,2,3,5,4,2,3,2,3,2,3,3,4,2,3,2,1,3,1,2,4,4,2,2,4,3,4,1,3,4
"UCSB",1997,2,6,2,4,2,1,0,0,2,NA,36.36111111,36.33333333,36.38888889,34.0184021,65,9.444444444,5,1,2,1,NA,4,4,5,NA,8,2,8,8,1,NA,2,1,3,1,4,1,1,NA,1,NA,NA,NA,NA,NA,NA,NA,NA,NA,NA,3,2,2,2,2,3,1,3,2,2,4,2,3,4,4,4,3,2,2,4,4,3,3,4,5,3,2,3,4,3,4,4,4,4,4,4,4,5,4,4,4,2,2,2,4,2,4,5,3,3,3,3,3,3,5,2,2,3,3,3,3,3,3,6,2,3,3,5,3,2,3,3,2,2,3,2,2,2,3,3,5,2,3,5,5,5,5,5,5,4,5,5,6,6,6,6,7,6,6,2,4,2,2,1,2,2,4,2,2,3,2,2,2,2,2,4,3,4,4,4,4,4,2,4,2,4,2,3,4,2,4,4,1,4,2,4,4,2,2,4,2,4,4,2,4,4,3,4,5,4,4,4,2,2,2,2,4,4,4,4,2,2,5,4,2,4,2,4,5,5,5,5,2,4,4,4,2,2,4
"UCSB",1997,2,7,2,1,2,1,1,0,2,NA,36.38888889,36,36.77777778,34.4329071,47,9.444444444,5,1,2,1,NA,4,2,5,NA,2,2,6,6,1,NA,2,8,3,1,8,8,1,NA,2,"an ethnic club",NA,NA,NA,NA,25,NA,NA,NA,NA,2,3,2,2,1,2,1,1,2,3,5,5,2,4,4,5,1,3,4,3,4,3,4,5,5,3,5,4,2,2,4,2,5,1,3,4,4,3,4,4,3,3,3,4,1,4,2,6,5,5,7,7,6,5,5,6,7,6,6,7,4,2,7,6,7,1,1,5,1,3,2,1,1,7,3,2,1,2,2,4,4,1,4,5,5,5,5,5,5,5,5,5,7,7,7,7,7,7,7,5,5,3,5,3,4,5,4,5,5,4,2,2,2,3,3,2,7,7,7,7,7,7,1,4,4,4,1,2,2,4,1,5,3,4,2,3,1,4,5,2,4,5,4,3,4,5,5,5,2,2,2,2,2,4,4,2,5,2,5,2,1,2,4,5,5,4,4,5,5,5,5,5,1,4,4,4,4,2,4
"Portugal",1997,2,7,2,2,2,1,7,2,2,NA,36.4,36.4,36.4,38.716705322266,42,13,8,1,2,1,NA,2,2,5,1,3,8,8,8,1,NA,2,5,1,NA,NA,1,1,NA,1,NA,NA,NA,NA,NA,NA,NA,NA,NA,NA,4,4,2,1,5,5,2,1,5,4,5,5,5,3,2,2,2,2,4,4,4,2,3,3,5,2,3,2,4,2,2,2,2,2,2,2,4,4,4,4,4,2,2,2,2,2,4,2,2,2,7,7,7,2,2,6,2,6,7,2,2,7,2,7,7,2,6,7,1,2,7,2,6,6,6,1,6,1,2,6,6,6,6,5,5,5,5,5,5,5,5,5,7,7,6,6,6,6,6,1,4,1,5,1,1,1,5,3,3,1,3,3,3,1,2,4,5,7,5,7,5,1,5,2,4,4,4,1,1,2,2,2,1,3,1,5,5,4,4,4,4,4,2,4,4,1,1,1,2,1,3,5,2,4,1,3,4,1,2,1,1,4,4,4,4,3,1,5,5,4,1,4,3,2,4,1,3,1,1
"METU",1997,2,7,1,3,2,1,5,0,2,NA,36.4,36.2,36.6,39.911697387695,69,6,3,2,2,1,NA,4,4,4,1,5,3,8,8,1,NA,2,8,1,NA,NA,1,2,3,2,"lodos grubu",NA,NA,NA,NA,3,NA,NA,NA,NA,2,4,2,4,2,4,2,3,2,3,4,2,4,3,4,4,2,2,3,2,3,2,3,5,4,3,3,2,3,3,4,4,4,4,2,4,5,4,4,5,4,2,4,2,2,4,5,6,6,6,6,7,6,6,2,6,2,6,2,2,2,2,6,2,2,2,2,2,2,2,2,2,2,2,2,2,2,2,2,5,3,1,3,4,3,4,3,4,2,2,3,4,3,6,6,6,7,6,6,4,2,2,2,2,2,3,4,2,4,2,2,3,4,2,2,4,4,6,2,3,2,1,2,2,4,4,2,2,4,2,2,5,5,2,4,4,4,4,4,4,3,4,2,4,4,4,4,4,2,2,4,2,2,4,1,3,3,4,2,2,2,4,4,4,4,4,4,4,4,4,4,4,2,4,5,4,2,2,4
"Tsinghua",1997,1,7,1,4,2,1,1.7,0,2,0,36.4,36.3,36.5,39.928894042969,22,8,7,3,2,1,0,4,2,5,0,4,1,6,3,1,1,2,8,1,1,1,3,1,8,1,"ºÏ³ª¶Ó",NA,NA,NA,NA,8,NA,NA,NA,NA,3,2,3,4,2,5,2,3,2,3,4,5,3,5,4,4,2,2,2,3,5,4,2,4,5,2,4,5,5,4,4,4,4,4,5,5,5,4,5,5,4,2,3,3,2,1,4,4,1,1,7,2,5,2,5,1,2,1,2,2,2,1,2,6,1,2,1,5,1,1,2,1,1,1,1,1,2,1,2,1,4,2,3,5,3,4,5,4,1,4,3,2,3,2,2,2,2,4,3,1,1,1,2,1,1,3,3,2,3,2,1,1,2,4,5,3,3,3,2,2,3,2,2,2,5,5,1,1,1,1,3,5,4,1,1,5,5,3,4,1,3,4,5,4,5,4,5,4,2,1,4,3,3,3,3,4,4,5,5,5,1,5,2,4,5,2,4,5,5,5,4,4,4,5,5,4,2,1,5
"UCSB",1997,2,7,2,4,2,1,0,0,2,NA,36.44444444,36.44444444,36.44444444,34.4329071,92,13.88888889,5,1,2,1,NA,4,4,5,NA,2,2,5,3,1,NA,2,5,1,NA,NA,4,1,NA,1,NA,NA,NA,NA,NA,NA,NA,NA,NA,NA,4,3,2,4,3,4,4,2,2,4,3,5,4,2,3,3,3,3,3,3,3,2,2,3,4,2,3,4,4,4,4,4,4,4,4,4,4,4,4,4,4,2,4,4,4,4,4,4,4,4,4,4,2,4,4,4,4,4,4,4,2,4,4,4,4,4,4,4,4,4,4,4,4,4,4,4,4,4,4,4,4,4,4,5,5,5,5,5,4,2,4,4,4,4,4,3,5,5,4,1,4,1,4,2,1,2,3,1,1,1,4,4,4,4,4,4,3,3,3,3,3,3,2,4,4,4,3,2,2,2,2,4,4,1,3,4,4,3,1,2,1,2,4,4,3,2,2,3,3,2,2,2,3,2,3,3,4,4,4,2,2,2,3,3,4,2,2,3,4,2,2,3,4,4,2,3,3,2,4
"UCSB",1997,2,7,2,3,2,1,1,0,2,NA,36.44444444,36.16666667,36.72222222,34.4329071,84,7.222222222,5,1,2,1,NA,4,2,5,NA,3,3,4,2,1,NA,2,6,3,1,6,2,1,NA,1,NA,NA,NA,NA,NA,NA,NA,NA,NA,NA,4,2,2,4,3,4,1,1,2,3,5,4,5,4,3,5,2,4,4,4,4,4,3,2,5,3,5,5,5,4,5,4,4,3,1,5,5,4,3,5,2,2,4,3,4,4,3,6,5,7,7,7,7,5,6,3,5,2,3,7,6,6,6,7,5,7,5,6,1,5,2,3,4,2,6,2,6,5,4,4,4,1,3,5,4,5,5,5,5,5,4,5,7,6,5,6,5,5,5,2,5,1,3,1,2,5,2,4,2,2,1,2,3,2,2,2,3,5,4,4,2,4,2,5,5,5,1,4,2,2,4,5,2,2,5,5,5,4,3,3,3,4,5,5,4,5,3,5,5,3,3,4,2,2,3,2,5,5,4,3,3,4,4,4,2,4,3,5,5,4,3,4,5,5,5,5,5,2,4
"Serbia",1997,2,7,1,5,2,1,3,2,2,NA,36.5,36.6,36.4,44.818603515625,45,12,6,1,2,1,NA,4,4,5,NA,2,2,4,3,2,1,2,8,1,NA,NA,2,1,NA,1,NA,NA,NA,NA,NA,NA,NA,NA,NA,NA,4,4,4,4,5,1,4,3,4,3,2,4,4,3,3,3,2,2,2,2,3,2,3,3,4,3,2,2,2,2,1,2,1,1,2,4,2,2,4,2,2,1,3,1,1,2,4,1,1,1,1,4,2,1,1,NA,1,1,1,1,2,1,2,3,1,5,NA,5,1,3,3,2,NA,NA,NA,1,NA,NA,1,6,6,NA,NA,5,5,5,5,5,5,5,5,5,3,3,4,3,3,3,3,3,2,1,3,4,2,2,3,2,1,3,3,2,2,2,3,5,4,6,2,7,6,6,2,4,3,2,1,3,3,4,3,5,4,2,2,3,3,4,3,4,4,4,4,2,3,3,1,1,2,3,4,4,3,4,1,2,4,3,3,2,3,3,4,4,3,3,2,4,4,4,4,4,2,4,3,3,3,4,3
"Serbia",1997,1,2,1,4,2,1,NA,0,1,15,36.5,36.5,36.5,44.818603515625,56,6,6,1,2,1,NA,4,4,5,NA,2,2,6,6,1,NA,2,8,1,NA,NA,1,1,NA,2,"Kosarkaski klub",NA,NA,NA,NA,10,NA,NA,NA,NA,5,2,2,2,3,3,2,4,1,1,4,2,2,2,4,3,4,2,2,3,3,3,2,3,4,4,3,4,4,3,4,4,5,4,3,5,4,4,3,4,3,3,4,4,3,4,4,5,4,4,8,4,4,2,5,NA,2,4,4,4,4,5,2,4,5,4,3,4,6,3,5,4,3,4,3,3,4,3,2,4,3,NA,3,4,3,3,3,3,4,3,3,3,5,5,5,4,6,2,4,4,4,3,4,3,4,4,3,3,3,4,2,4,2,3,2,3,3,3,2,1,2,2,2,4,2,4,2,2,3,4,3,4,3,3,4,3,3,3,4,3,3,4,3,3,4,4,4,3,2,3,4,4,2,2,3,4,4,4,3,4,3,2,3,3,3,3,2,3,4,3,3,5,4,5,2,4,3,5,3
"Bamberg",1997,2,7,2,4,2,1,0,0,2,NA,36.55,36.6,36.5,48.245697021484,90,2,1,1,2,1,NA,4,4,5,NA,3,2,4,4,1,NA,2,4,1,NA,NA,1,1,NA,2,"Fu?ball",NA,NA,NA,NA,5,NA,NA,NA,NA,2,3,2,5,2,2,2,2,3,3,2,4,3,2,2,2,2,3,2,2,4,2,2,3,4,3,2,4,4,3,4,4,3,4,2,3,4,4,4,4,3,2,2,3,3,4,4,4,4,2,4,4,3,2,3,4,2,4,3,2,2,5,2,4,2,3,3,3,2,3,2,2,3,2,2,2,3,2,3,5,6,2,2,4,3,4,5,3,3,3,4,3,3,3,4,4,4,4,4,4,4,1,4,4,3,3,4,2,3,2,1,4,2,4,2,4,4,2,2,2,2,2,2,3,2,4,3,3,3,2,2,3,2,1,2,3,3,2,2,2,2,4,3,4,3,3,3,4,3,4,3,3,2,2,2,2,3,3,2,3,3,4,3,3,4,2,2,4,4,2,2,2,3,2,3,3,4,2,4
"UCSB",1997,2,4,2,3,1,1,1,1,1,0,36.55555556,36.16666667,36.94444444,34.4329071,76,10,5,1,2,1,NA,4,4,5,NA,3,1,3,3,2,1,2,6,1,NA,NA,3,1,NA,1,NA,NA,NA,NA,NA,NA,NA,NA,NA,NA,4,3,3,1,1,4,1,2,4,1,3,2,5,4,4,4,1,1,4,4,3,4,2,5,5,3,5,2,4,3,4,2,2,2,2,3,5,1,5,2,5,1,1,1,1,1,5,2,3,2,5,4,2,2,3,3,3,6,2,2,1,2,2,5,2,5,4,5,5,5,5,6,3,3,2,1,3,2,5,4,5,2,2,5,5,5,5,5,5,5,5,5,6,7,7,7,7,7,4,4,3,2,5,5,2,4,4,5,4,4,1,4,2,5,1,4,4,2,2,2,2,1,1,2,4,4,1,4,4,5,5,5,4,1,2,4,3,2,4,4,2,2,4,2,4,3,2,4,4,4,2,1,2,3,4,2,5,5,3,4,1,3,4,2,4,3,2,4,4,2,2,4,3,5,3,4,2,1,1
"UCSB",1997,2,7,2,4,2,1,0,0,2,NA,36.58333333,36.27777778,36.88888889,34.4329071,82,12.22222222,5,1,2,1,NA,4,2,5,NA,2,1,8,8,2,1,2,3,1,NA,NA,1,1,NA,2,"Rowing",NA,NA,NA,NA,15,NA,NA,NA,NA,3,3,4,4,2,3,3,4,2,3,4,4,3,2,3,5,2,2,2,2,3,4,3,3,4,3,3,2,5,2,4,2,2,3,4,4,4,2,4,4,2,1,4,4,2,4,4,5,5,5,3,3,6,4,5,5,2,5,2,4,3,6,2,7,2,4,2,4,3,2,2,5,3,3,3,2,3,2,3,3,3,3,2,5,5,5,5,5,5,5,5,5,7,5,5,5,7,7,7,2,4,2,4,4,2,3,3,2,4,4,3,1,2,2,4,4,4,3,4,4,5,3,2,2,4,4,1,2,4,3,3,5,5,2,4,5,2,3,2,4,1,2,4,4,5,4,4,4,4,5,4,4,3,3,3,4,4,4,3,1,2,2,2,4,5,3,4,4,4,2,2,5,2,4,2,4,2,1,5
"Chile",1997,1,7,1,3,2,1,5,3,2,0,36.585,36.67,36.5,33.449996948242,59,6,2,1,2,1,NA,4,4,4,2,7,6,6,3,1,NA,2,8,1,NA,NA,3,1,NA,2,"AEM",NA,NA,NA,NA,5,NA,NA,NA,NA,4,3,2,5,2,2,1,3,2,1,4,2,5,2,3,3,2,3,2,3,3,2,3,3,4,3,2,2,3,2,4,1,1,1,4,4,4,2,4,3,4,2,4,1,4,1,4,3,1,2,5,4,7,2,1,5,1,1,2,2,5,1,3,7,1,2,5,4,2,1,1,2,2,2,2,2,2,1,2,4,6,1,3,4,4,4,5,5,4,5,4,3,5,5,5,5,6,6,6,2,3,3,3,4,4,4,2,2,2,4,2,2,2,3,2,4,4,5,2,2,3,3,4,5,5,4,1,2,3,2,3,5,4,5,5,4,2,4,1,2,4,3,5,5,3,5,4,4,4,3,3,3,3,2,2,3,4,4,4,4,4,3,3,4,4,2,3,4,3,4,4,4,5,4,3,3,3,2,4
"METU",1997,2,6,2,3,1,1,NA,NA,2,NA,36.6,36.7,36.5,39.911697387695,70,3,3,2,2,1,NA,4,1,5,NA,3,1,4,4,2,6,2,8,2,1,2,1,1,NA,2,"Kazaklar","Mescit toplulu?u",NA,NA,NA,2,5,NA,NA,NA,5,2,1,3,2,4,1,1,1,1,4,2,4,2,4,4,2,3,4,3,4,2,3,2,5,4,5,4,4,4,4,4,2,3,4,5,2,1,2,1,2,1,4,3,3,2,2,6,5,5,4,4,4,5,7,3,4,4,1,2,1,7,6,7,1,7,7,7,7,7,7,7,4,2,2,3,2,3,7,7,6,1,3,3,5,2,2,5,4,3,2,1,5,4,4,3,6,5,6,5,5,3,5,5,5,5,5,5,5,5,2,5,3,2,2,4,7,6,4,5,4,3,2,2,4,4,1,4,4,2,5,5,5,2,3,5,5,3,5,2,1,2,5,5,3,1,1,1,1,3,1,1,3,2,3,5,5,4,3,2,2,4,2,4,3,1,1,4,4,1,1,5,2,4,5,5,2,2,4
"METU",1997,2,7,2,4,2,1,NA,NA,2,NA,36.6,36.6,36.6,39.911697387695,70,3,3,2,2,1,NA,4,4,5,NA,8,5,8,8,1,NA,2,8,1,NA,NA,4,1,NA,2,"Engelsiz Odt¨¹ Toplulu?u",NA,NA,NA,NA,6,NA,NA,NA,NA,5,2,3,5,5,3,2,3,2,4,5,2,4,3,4,4,2,2,2,2,3,2,3,3,4,2,3,5,5,5,5,5,4,5,5,5,5,4,5,5,5,2,4,5,2,5,5,7,6,4,7,7,7,7,7,7,1,7,1,2,1,3,6,2,2,1,1,1,6,6,1,7,7,7,1,1,2,1,7,2,1,1,2,5,5,5,4,5,5,5,5,5,6,5,5,5,4,6,6,3,2,1,2,3,4,4,1,1,2,2,1,1,2,4,1,5,8,6,2,4,4,4,1,2,1,5,5,5,3,4,5,2,4,1,1,4,5,1,5,5,1,5,2,3,5,5,5,5,5,5,5,5,1,1,1,4,5,4,4,2,4,2,3,5,4,3,1,5,2,4,2,5,2,5,5,5,5,1,5
"UCSB",1997,2,4,1,4,2,1,0,0,1,0,36.61111111,36.33333333,36.88888889,34.4329071,60,9.444444444,5,1,2,1,NA,4,4,5,NA,8,3,7,7,1,NA,2,6,3,1,3,8,2,3,2,"TBL","MC","RCSGD",NA,NA,2,1,1,NA,NA,3,2,2,3,2,3,1,2,1,2,4,2,1,2,4,3,2,3,2,3,4,2,3,2,5,2,2,4,3,4,2,4,4,4,4,3,4,3,4,3,3,2,3,3,3,3,3,5,2,1,5,2,5,2,2,2,2,2,2,6,4,2,4,6,1,2,2,7,1,3,1,2,3,2,1,1,2,1,3,6,3,2,2,2,4,4,4,4,1,2,2,2,6,6,3,5,6,6,4,4,5,4,5,3,4,2,5,3,5,2,2,2,2,3,1,5,6,5,1,3,6,6,4,4,5,4,2,4,2,4,4,4,4,3,2,3,3,4,3,5,4,4,4,3,4,5,5,5,4,4,5,5,1,2,2,2,4,4,4,5,2,4,3,4,5,5,3,2,4,5,5,4,3,4,3,5,4,3,4
"UCSB",1997,1,6,2,4,2,1,12,0,2,NA,36.63888889,36.55555556,36.72222222,NA,91,13.88888889,5,1,2,1,NA,4,4,3,1,2,1,8,8,1,NA,2,8,1,NA,NA,8,1,NA,2,"RHA","Economics","Psychology","Freshman Seminar","Hall Events",7,5,3,2,3,5,2,5,5,4,4,4,4,4,4,5,4,5,2,2,3,1,1,1,2,2,1,1,2,4,1,1,3,4,1,4,2,2,2,2,3,4,4,5,4,2,2,2,4,2,2,4,1,2,2,2,4,4,5,3,2,1,2,2,1,2,1,2,2,1,6,3,6,5,5,3,3,3,2,5,5,3,2,4,6,6,3,3,4,3,5,4,4,3,2,4,3,6,5,5,4,6,6,5,4,4,1,4,3,2,4,4,2,3,2,1,1,2,2,1,5,5,4,2,2,4,5,4,4,5,5,2,2,2,2,2,4,2,2,4,2,2,3,1,1,3,4,4,3,4,5,2,4,3,4,3,3,4,2,4,1,3,5,3,4,2,2,4,5,2,2,3,5,4,3,5,3,5,4,3,2,2,4,1
"Chile",1997,2,6,2,4,2,1,0,7,1,NA,36.65,36.5,36.8,33.449996948242,79,2,2,1,2,1,NA,4,4,5,NA,8,6,7,7,1,NA,2,8,1,NA,NA,3,1,NA,1,NA,NA,NA,NA,NA,NA,NA,NA,NA,NA,2,1,1,4,4,4,4,2,1,4,3,1,5,3,3,4,3,3,3,3,5,3,4,2,5,4,4,3,4,2,4,3,1,4,3,3,2,4,5,4,4,2,3,2,2,1,4,6,2,2,2,5,6,5,2,4,2,4,2,3,2,5,6,5,1,2,1,6,1,1,1,2,2,1,1,1,1,2,2,6,6,2,2,5,5,5,5,5,5,4,5,5,6,5,6,3,5,6,7,4,4,1,4,4,4,5,4,3,4,2,3,3,1,3,1,4,4,4,4,4,5,3,1,4,5,5,4,2,3,4,2,5,3,1,1,3,4,3,5,2,2,2,3,1,5,3,3,5,5,5,4,5,1,1,2,5,5,5,4,1,1,4,2,3,4,2,3,5,3,3,2,4,2,3,4,3,4,2,5
"Portugal",1997,2,7,2,2,2,1,0,0,2,NA,36.65,36.7,36.6,38.716705322266,42,13,8,1,2,1,NA,4,4,5,1,4,4,7,5,1,NA,2,8,3,1,8,2,1,NA,1,NA,NA,NA,NA,NA,NA,NA,NA,NA,NA,1,4,1,5,4,5,2,3,2,2,5,4,5,3,3,4,3,3,3,3,4,3,3,4,4,3,4,4,4,3,4,4,3,4,3,4,5,4,5,5,3,3,3,4,3,1,3,3,3,3,3,3,3,3,3,5,3,5,3,3,3,3,3,3,3,3,5,3,5,3,3,3,5,5,5,5,5,5,3,5,5,5,5,5,5,5,5,5,4,4,5,4,3,7,7,7,5,5,4,3,3,2,1,3,2,2,3,2,5,2,3,2,3,5,3,4,7,7,6,7,7,7,2,4,3,5,2,3,2,3,3,3,2,1,2,4,3,4,5,5,5,4,4,3,3,1,1,1,4,1,4,4,2,4,4,1,2,4,4,4,2,4,5,3,2,2,2,2,4,2,2,3,3,3,4,2,2,1,4
"Tsinghua",1997,2,7,1,5,2,1,12,0,2,0,36.65,36.3,37,39.928894042969,21,11,7,3,2,1,0,4,2,5,0,3,1,5,4,1,1,2,8,3,1,3,1,1,8,1,"Çå»ª´óÑ§ºÏ³ª¶Ó","Çå»ªµçÊÓÌ¨Ñ§Éú¼ÇÕßÍÅ","Çå»ª´óÑ§Éç¿ÆÍÅÎ¯","Çå»ª´óÑ§Éç¿Æ¿ÆÐ­","Çå»ª´óÑ§ÖÎ°²·þÎñ·Ö¶Ó",NA,NA,5,6,2,4,3,5,4,4,4,1,4,1,4,4,4,3,1,2,2,1,1,1,2,3,1,2,1,5,2,2,4,4,1,5,3,2,5,5,5,5,3,5,5,1,2,5,3,1,2,5,2,1,1,1,6,2,5,6,1,1,1,4,2,1,2,5,5,1,7,1,5,1,1,2,2,2,2,1,2,2,1,1,1,5,3,2,3,4,3,4,5,4,4,4,4,6,4,4,5,6,7,7,2,3,1,1,2,2,3,3,2,2,1,5,5,1,3,1,5,7,6,6,4,5,6,4,4,4,4,1,3,3,4,2,5,2,3,4,5,3,4,4,4,1,1,3,3,4,3,2,5,4,4,5,5,2,3,2,2,1,4,3,2,1,4,3,5,3,2,2,4,4,3,3,5,3,2,5,5,4,5,4
"Tsinghua",1997,1,2,2,3,2,1,20,0,2,0,36.65,36.7,36.6,30.580093383789,87,17,7,3,2,1,0,4,4,5,0,3,1,6,6,1,1,2,8,1,1,1,5,2,1,1,"×ÀÓÎÐ­»á","ÇàÄê´«Ã½ÖÐÐÄ",NA,NA,NA,5,3,NA,NA,NA,2,3,3,3,3,3,2,3,3,2,3,2,3,3,3,3,3,3,2,3,2,3,3,3,4,3,2,4,4,4,4,3,4,4,4,4,4,4,3,4,3,3,4,4,4,3,4,6,5,5,5,6,6,5,6,3,5,3,5,6,6,5,5,5,5,5,2,6,1,2,7,6,2,2,2,2,4,2,6,3,3,2,3,5,5,4,5,5,5,4,5,5,5,2,4,5,4,6,6,3,2,3,2,2,4,4,4,4,3,2,2,2,2,4,2,3,3,4,3,2,1,3,2,4,5,5,2,3,2,3,3,5,2,1,3,4,4,4,3,3,3,3,4,4,4,3,3,4,5,3,4,4,2,2,3,2,3,4,3,2,2,4,3,4,4,3,2,4,3,3,3,3,2,4,3,3,4,2,2
"UCSB",1997,2,7,1,2,2,1,0,0,2,NA,36.66666667,36.11111111,37.22222222,34.4329071,87,8.333333333,5,1,2,1,NA,4,4,5,NA,4,4,3,3,1,NA,2,4,1,NA,NA,5,1,NA,1,NA,NA,NA,NA,NA,NA,NA,NA,NA,NA,3,1,1,4,2,2,1,4,1,1,3,2,1,4,2,5,5,5,4,4,5,4,5,2,2,4,5,5,5,5,5,5,5,5,4,5,5,5,5,5,5,5,5,5,5,5,5,3,2,2,7,6,2,2,5,4,6,3,7,2,6,5,6,5,6,3,7,5,1,5,1,1,6,3,3,2,1,3,1,3,3,2,4,3,3,3,3,3,3,3,3,3,3,4,4,4,4,4,4,4,4,4,4,4,2,4,4,4,3,4,2,2,3,2,2,4,5,4,4,4,4,4,1,2,2,5,4,1,4,5,3,3,2,2,1,2,1,2,2,1,4,4,3,4,5,5,5,5,4,3,4,3,1,2,4,5,4,3,4,1,2,4,4,3,2,5,1,2,5,5,4,4,2,5,4,5,5,2,1
"UCSB",1997,1,4,1,4,2,1,3,3,1,0,36.69444444,36.16666667,37.22222222,34.4329071,76,10,5,1,2,1,NA,4,4,5,NA,8,3,7,7,1,NA,2,6,1,NA,NA,1,1,NA,1,NA,NA,NA,NA,NA,NA,NA,NA,NA,NA,2,4,4,3,1,2,3,3,3,5,4,2,3,3,4,3,2,4,2,3,3,3,3,3,4,2,2,3,4,2,4,2,2,2,2,4,4,4,2,3,2,1,3,2,4,2,3,3,2,2,2,3,2,2,2,2,1,2,1,2,2,3,2,4,2,4,3,3,1,2,1,1,2,2,3,3,4,3,3,3,4,1,3,3,3,3,4,4,2,2,2,2,7,3,4,4,4,4,4,3,2,2,2,3,3,2,2,2,2,2,3,3,4,3,3,2,5,4,2,2,4,4,3,4,4,4,2,2,3,3,3,4,4,2,4,4,4,2,2,3,3,4,4,2,4,4,3,4,3,3,4,3,2,3,3,3,4,4,3,2,4,2,4,3,2,3,4,4,4,4,4,2,3,2,3,2,3,2,4
"UCSB",1997,1,7,2,2,2,1,0,0,2,NA,36.69444444,36.44444444,36.94444444,34.4329071,83,13.33333333,5,1,2,1,NA,4,2,4,1,8,2,6,6,1,NA,2,8,1,NA,NA,1,1,NA,1,NA,NA,NA,NA,NA,NA,NA,NA,NA,NA,2,5,1,3,4,4,1,2,2,2,3,5,2,3,3,4,3,3,3,3,4,3,4,4,5,4,5,4,3,3,4,3,2,4,2,5,2,2,2,2,2,2,4,3,4,4,4,5,5,5,5,6,5,5,6,5,3,5,5,4,4,4,4,6,2,2,2,4,2,2,2,6,2,2,3,2,3,3,3,3,2,2,2,5,5,5,5,5,5,5,5,5,3,5,5,5,4,4,5,3,3,3,2,3,3,3,4,3,4,4,3,4,2,4,2,3,4,3,1,1,1,2,4,4,4,4,2,3,3,2,4,4,3,3,4,3,3,4,4,3,3,3,4,5,5,5,4,4,5,4,4,4,3,3,3,4,5,5,4,1,4,3,5,2,5,3,2,4,4,4,4,2,2,3,3,3,3,2,3
"Tsinghua",1997,2,1,2,2,2,1,0,0,2,0,36.7,36.6,36.8,30.580093383789,78,17,7,3,2,1,0,4,4,5,0,5,1,5,5,1,1,1,8,3,1,1,1,2,1,2,NA,NA,NA,NA,NA,0,0,0,0,0,4,3,3,4,4,3,2,2,4,3,4,4,4,2,2,1,2,3,2,2,2,2,2,2,2,3,2,2,2,2,2,2,2,2,2,2,2,2,2,2,2,2,2,2,2,2,2,2,2,2,2,3,3,2,2,4,2,2,3,2,3,2,2,2,2,5,4,4,5,3,3,2,4,3,5,6,6,5,3,6,5,5,5,4,4,4,3,4,4,4,4,4,5,2,3,5,4,3,6,3,3,2,4,3,2,4,3,4,3,2,2,3,2,3,2,3,2,4,2,2,2,2,2,3,4,3,2,2,2,3,3,4,3,2,3,4,4,3,2,4,2,2,3,3,4,2,2,3,3,3,3,3,2,2,2,3,2,3,3,3,2,3,2,3,2,2,4,2,2,2,2,2,3,2,3,2,3,3,4
"Serbia",1997,2,6,2,4,2,1,4,0,2,NA,36.7,36.7,36.7,44.818603515625,45,12,6,1,2,1,NA,4,4,5,NA,8,4,7,7,1,NA,2,8,1,NA,NA,2,1,NA,1,NA,NA,NA,NA,NA,NA,NA,NA,NA,NA,4,3,4,4,4,5,4,2,2,4,2,2,3,3,4,2,4,3,2,2,3,2,2,3,5,4,2,2,2,1,3,3,2,1,2,3,4,4,1,3,1,1,1,1,1,1,1,2,2,2,5,2,2,5,5,NA,5,NA,2,1,1,2,1,5,2,2,1,8,1,1,1,1,NA,1,5,1,6,NA,2,6,7,1,NA,5,5,5,5,5,5,5,5,5,7,4,6,6,4,6,6,3,1,1,3,1,2,2,1,1,2,1,4,2,1,1,3,5,6,6,1,6,6,6,2,2,2,4,3,5,2,2,2,3,2,2,4,4,3,2,4,5,5,5,5,4,4,4,1,1,1,2,2,3,2,4,2,2,1,4,4,1,1,2,5,4,4,4,1,4,4,4,4,4,3,5,5,4,4,3,2
"Tsinghua",1997,2,7,2,2,2,1,4,NA,2,0,36.7,36.6,36.8,30.580093383789,87,17,7,3,2,1,0,4,4,5,0,8,4,5,3,1,1,2,8,2,1,8,1,1,3,1,"Óè°®ÊÖÓïÐ­»á","ÇàÄê´«Ã½ÖÐÐÄ",NA,NA,NA,9,19,NA,NA,NA,3,3,3,4,4,4,3,4,4,4,4,3,3,3,2,4,2,2,3,3,2,2,3,3,4,1,2,4,3,3,4,3,4,4,4,4,4,3,4,3,4,2,3,3,2,2,4,5,4,5,4,5,3,3,5,5,3,4,4,3,2,4,5,5,3,5,3,5,4,4,4,5,4,3,4,5,5,3,4,5,6,4,4,5,5,4,5,5,4,3,3,4,5,3,3,5,5,4,4,2,3,2,2,4,4,4,4,3,2,2,2,2,2,2,2,3,4,7,4,3,3,4,3,3,4,4,3,2,2,2,2,4,3,1,2,2,2,3,3,4,2,2,2,4,4,3,4,5,4,4,4,3,2,2,2,2,3,3,3,3,2,4,3,3,4,3,3,4,2,3,2,4,2,3,4,3,4,3,3
"UCSB",1997,2,7,2,5,2,1,0,0,2,NA,36.72222222,36.72222222,36.72222222,37.553802490234,84,7.222222222,5,1,2,1,NA,4,4,1,NA,2,2,4,3,1,NA,2,8,1,NA,NA,3,1,NA,1,NA,NA,NA,NA,NA,NA,NA,NA,NA,NA,3,2,3,2,2,3,2,3,2,2,4,3,2,2,3,3,2,3,2,3,2,2,2,3,4,2,2,4,3,2,3,3,2,2,4,4,4,3,4,4,4,2,2,2,4,2,3,5,4,3,4,5,4,4,4,4,2,3,4,4,3,4,4,4,2,4,4,4,2,3,4,4,2,2,3,3,3,4,3,4,4,2,2,4,4,4,4,4,4,4,4,4,5,4,4,4,4,3,4,2,4,3,2,3,3,3,2,4,3,2,2,4,2,3,2,1,3,4,3,3,3,3,4,2,4,2,1,4,3,4,4,4,4,2,4,4,4,4,4,2,2,4,4,4,4,4,3,4,4,4,4,4,2,2,3,2,4,4,5,2,2,4,4,4,3,3,2,4,4,4,3,4,2,4,3,4,4,2,4
"VCU",1997,2,6,2,4,2,1,12,0,2,NA,36.72222222,36.72222222,36.72222222,34.4329071,60,11.11111111,5,1,2,1,NA,4,4,5,NA,6,3,6,4,1,NA,2,8,1,NA,NA,3,1,NA,1,NA,NA,NA,NA,NA,NA,NA,NA,NA,NA,3,3,4,4,4,3,2,3,2,2,4,4,4,4,3,4,2,3,2,2,4,2,3,5,5,3,4,4,4,2,4,3,2,1,3,4,4,4,4,4,4,1,1,2,2,2,3,4,4,4,6,4,6,5,6,4,4,4,6,5,5,6,4,5,2,5,4,4,4,4,4,5,3,3,4,4,5,3,4,6,5,2,4,4,4,4,4,4,4,4,4,4,7,7,7,7,6,6,6,3,2,3,2,2,3,3,2,3,2,2,2,3,1,2,1,4,7,7,6,6,6,5,3,3,4,3,1,3,4,4,3,5,4,2,4,4,2,4,3,2,4,4,3,4,4,5,5,4,3,4,4,4,3,2,3,2,4,4,4,4,2,4,4,4,2,2,2,4,4,2,4,4,2,4,4,4,3,3,4
"UCSB",1997,2,4,2,4,2,1,0,0,2,NA,36.72222222,36.72222222,36.72222222,34.4329071,54,6.666666667,5,1,2,1,NA,4,4,5,NA,4,5,5,5,1,NA,2,8,1,NA,NA,4,1,NA,1,NA,NA,NA,NA,NA,NA,NA,NA,NA,NA,3,2,2,2,2,3,4,3,2,2,3,3,3,3,4,4,3,2,3,3,3,3,3,4,4,2,3,3,5,2,5,3,3,2,4,3,4,3,4,4,2,2,2,2,2,4,3,3,4,4,3,4,5,4,5,4,4,4,4,3,2,2,3,3,2,3,3,3,3,5,2,3,4,5,4,4,3,3,3,4,5,1,4,4,3,3,4,4,3,2,2,4,3,4,5,4,3,3,3,3,3,2,3,2,2,2,2,2,3,2,2,2,2,3,3,4,5,6,3,4,3,3,1,4,3,5,3,4,4,3,3,4,2,1,3,3,3,1,3,3,3,3,1,2,4,4,4,4,3,3,3,3,2,2,3,2,4,3,3,2,3,3,2,4,3,4,2,3,3,4,3,2,2,2,3,2,3,2,4
"Serbia",1997,1,7,1,5,2,1,8,0,2,NA,36.75,36.8,36.7,44.818603515625,65,8,6,1,2,1,NA,4,4,4,1,6,3,6,6,2,1,2,8,1,NA,NA,2,1,NA,1,NA,NA,NA,NA,NA,NA,NA,NA,NA,NA,4,2,5,5,3,4,3,3,5,4,4,3,2,2,4,2,2,2,2,2,2,2,2,4,5,1,2,1,2,1,1,1,2,1,1,1,4,4,3,4,4,1,1,1,4,1,4,5,2,2,4,4,8,1,2,NA,2,NA,1,2,2,8,1,8,1,2,NA,4,NA,1,1,1,1,1,NA,NA,1,NA,1,3,4,1,NA,5,5,5,5,5,5,5,5,5,6,5,5,5,5,5,6,4,4,1,3,3,4,4,2,3,4,2,2,2,1,2,3,5,7,7,6,6,7,7,4,3,3,4,2,2,2,3,3,5,3,3,3,2,4,4,4,4,4,4,4,3,4,4,1,1,1,3,5,5,4,2,1,1,1,2,4,4,4,2,3,4,3,3,4,4,4,5,5,5,2,3,3,3,3,4,2
"UCSB",1997,2,7,2,4,2,1,0,0,2,NA,36.75,36.5,37,34.4329071,64,6.111111111,5,1,2,1,NA,4,2,4,1,2,2,2,2,1,NA,2,8,1,NA,NA,3,1,NA,1,NA,NA,NA,NA,NA,NA,NA,NA,NA,NA,4,4,4,4,4,2,2,2,2,4,4,2,4,2,3,3,4,2,2,3,2,3,3,3,4,3,2,2,2,2,2,2,2,2,2,2,2,2,2,2,2,2,2,2,2,2,2,2,2,2,2,6,5,4,2,2,6,6,2,5,2,6,6,6,2,2,2,6,2,6,6,6,2,2,2,2,2,2,6,4,6,2,2,5,5,5,5,5,5,5,5,5,3,5,5,5,5,5,5,2,2,2,2,3,2,5,4,2,2,2,2,2,4,4,4,3,3,4,1,3,3,3,5,4,4,3,2,2,2,2,2,4,2,2,2,2,2,2,4,3,3,4,2,2,4,4,4,4,4,4,4,4,2,4,2,2,4,4,4,4,4,4,4,2,4,4,4,2,4,2,3,3,2,2,4,4,4,4,4
"Tsinghua",1997,2,7,2,2,2,1,4,0,2,0,36.75,36.9,36.6,30.580093383789,78,17,7,3,2,1,0,4,2,5,0,8,1,3,3,1,1,2,3,3,1,2,1,2,1,2,"¼Ò½Ì",NA,NA,NA,NA,2,NA,NA,NA,NA,2,3,2,2,4,5,3,1,3,5,5,2,2,2,4,3,4,4,3,3,1,3,2,5,4,2,3,2,4,1,4,3,1,2,5,4,4,3,4,3,1,1,1,3,2,2,3,5,6,6,4,7,5,6,6,6,2,6,5,4,6,1,6,5,6,1,1,6,3,2,3,3,3,2,2,1,4,1,6,4,2,4,1,5,5,5,5,5,5,5,5,5,1,1,1,4,5,2,3,2,2,3,2,5,2,2,2,3,2,4,2,3,1,3,1,3,2,4,2,3,2,4,1,1,5,5,1,2,2,2,5,5,3,1,4,4,2,2,4,1,1,2,4,5,3,2,2,4,4,2,4,5,3,2,2,4,4,3,5,5,2,4,3,4,4,2,5,4,5,3,3,4,2,4,3,3,5,3,3
"UCSB",1997,2,6,1,3,2,1,2,0,1,0.5,36.75,36.61111111,36.88888889,34.4329071,58,10,5,1,2,1,NA,4,4,5,NA,6,3,8,6,1,NA,2,6,3,8,5,5,1,NA,1,NA,NA,NA,NA,NA,NA,NA,NA,NA,NA,4,4,3,4,2,4,2,4,2,3,5,3,4,3,3,3,2,2,2,2,3,2,3,3,5,2,3,4,4,2,4,3,3,2,4,4,4,4,4,4,4,2,3,3,4,4,4,3,3,1,3,4,5,2,2,3,1,5,2,5,2,2,1,5,1,2,2,4,3,3,3,3,3,3,2,2,3,2,3,4,5,2,3,4,4,4,4,4,4,4,4,4,5,7,6,6,5,5,5,4,4,2,2,3,3,4,2,3,2,2,1,1,1,2,1,5,5,5,3,3,3,3,1,3,2,5,4,4,3,5,5,2,4,1,1,2,5,1,4,3,3,3,4,2,5,5,5,5,4,4,4,4,1,3,2,4,5,5,4,4,2,3,2,4,3,3,2,2,4,4,4,4,1,4,4,3,4,2,2
"Tsinghua",1997,1,7,2,2,2,1,0,0,2,0,36.75,36.7,36.8,30.580093383789,87,17,7,3,2,1,0,4,3,5,0,4,2,4,4,1,1,2,5,2,8,3,3,1,3,2,NA,NA,NA,NA,NA,NA,NA,NA,NA,NA,5,4,4,5,5,5,1,5,4,4,5,4,1,4,2,1,2,2,2,2,2,2,2,4,4,2,1,4,3,4,3,4,4,4,4,4,3,4,4,3,4,4,4,4,4,3,4,4,4,4,4,4,7,4,4,4,4,4,4,4,4,5,4,5,4,4,4,4,3,4,4,4,4,5,4,4,4,4,4,3,3,4,4,5,5,5,5,5,5,5,5,5,3,2,4,7,7,7,7,3,3,2,2,3,3,3,3,3,2,3,3,3,1,3,3,3,4,4,6,6,1,1,2,4,4,4,2,2,2,2,2,4,2,2,3,4,3,4,4,4,3,3,3,3,4,3,4,3,4,4,4,4,4,4,4,4,4,4,3,3,3,3,3,3,4,3,3,3,3,3,3,3,3,4,3,3,3,3,3
"Tsinghua",1997,1,5,2,3,2,1,2,0,2,0,36.75,36.8,36.7,30.580093383789,87,17,7,3,2,1,0,4,4,5,0,8,3,4,2,1,1,2,8,1,1,1,3,2,1,2,"ÒôÀÖÖ®ÓÑ","×ÔÖú¿ÆÑÐ",NA,NA,NA,2,2,0,0,0,2,3,2,3,2,4,2,2,3,2,4,2,2,4,4,3,3,2,3,3,2,2,2,3,4,4,3,4,4,4,4,4,4,4,3,4,5,4,4,3,4,4,5,5,5,4,4,6,5,4,3,6,3,4,5,4,5,3,5,6,6,5,3,6,2,5,2,5,3,5,3,4,2,4,2,2,2,2,4,2,2,1,3,3,4,4,5,4,3,3,4,4,6,2,4,5,6,5,5,4,3,2,3,3,3,4,3,4,3,3,2,3,2,3,2,3,2,4,2,2,2,3,2,4,4,4,2,2,2,3,3,5,4,1,3,4,4,3,2,3,3,3,4,4,4,4,4,4,4,3,4,4,2,2,3,2,4,5,3,3,3,4,4,4,4,4,4,4,2,3,4,4,2,4,4,4,5,3,2
"UCSB",1997,2,7,2,3,2,1,1,0,1,0,36.75,36.61111111,36.88888889,34.4329071,83,13.33333333,5,1,2,1,NA,4,4,5,NA,5,1,8,8,1,NA,2,5,1,NA,NA,3,2,5,2,"Circle K",NA,NA,NA,NA,4,NA,NA,NA,NA,2,4,2,2,3,3,2,2,2,2,3,4,3,4,3,4,2,3,3,3,4,3,3,4,5,3,4,5,4,4,4,4,4,4,4,4,4,5,5,4,4,4,4,4,4,4,4,5,5,4,5,5,5,5,5,4,3,4,4,5,4,5,4,5,3,4,4,4,4,3,3,5,4,4,4,4,4,4,5,4,3,4,4,4,5,4,5,4,4,4,4,4,7,6,6,6,6,6,5,3,2,1,2,2,3,3,2,2,2,4,3,3,2,3,2,5,6,5,3,4,4,4,4,2,4,4,2,2,2,4,3,4,4,2,4,4,2,4,2,2,3,2,4,4,4,4,4,4,3,4,4,4,2,3,2,2,2,3,3,4,2,3,2,4,3,2,3,4,4,4,2,4,2,4,4,4,4,2,2
"UCSB",1997,2,7,1,4,2,1,0,0,2,NA,36.77777778,36.66666667,36.88888889,34.4329071,68,5.555555556,5,1,2,1,NA,4,4,5,NA,1,NA,6,6,1,NA,2,5,1,NA,NA,1,1,NA,1,NA,NA,NA,NA,NA,NA,NA,NA,NA,NA,3,2,1,5,5,4,1,1,1,3,3,2,4,3,3,5,3,3,3,2,4,2,4,2,5,2,4,3,3,3,2,4,3,2,4,4,4,4,4,4,2,1,1,1,4,1,3,3,1,5,3,5,5,1,2,3,5,2,4,5,1,2,7,6,2,3,3,2,3,3,2,2,3,5,3,2,5,2,2,3,5,5,3,5,5,5,5,5,4,3,5,4,7,7,7,7,7,7,7,2,2,1,2,1,1,2,2,2,2,2,2,3,2,2,2,5,6,5,1,4,4,4,1,3,4,4,3,4,2,2,5,4,2,1,3,2,2,2,3,4,3,4,4,3,4,3,3,3,3,4,3,4,3,4,3,2,4,3,2,2,3,3,4,4,4,3,3,3,4,4,3,4,2,4,4,3,3,2,4
"UCSB",1997,2,7,1,3,2,1,2,0,2,NA,36.77777778,36.83333333,36.72222222,34.4329071,55,10.55555556,5,1,2,1,NA,4,4,5,NA,4,1,6,5,1,NA,2,6,1,NA,NA,1,1,NA,1,NA,NA,NA,NA,NA,NA,NA,NA,NA,NA,2,3,2,4,4,4,2,2,3,3,3,4,4,2,3,5,3,4,2,4,3,4,3,2,4,3,2,3,4,4,4,3,2,2,4,4,4,3,3,3,3,2,3,2,2,2,3,2,5,2,5,2,3,2,2,3,2,3,2,2,2,2,5,2,2,2,6,2,2,3,1,6,2,2,2,2,1,3,2,2,2,2,3,4,3,4,4,4,3,4,4,2,3,6,4,4,4,4,5,2,2,1,2,1,2,2,2,2,1,2,4,2,2,2,1,2,3,5,2,2,3,1,2,3,4,4,3,2,2,2,2,4,2,2,3,2,2,3,2,2,2,3,4,3,4,5,3,3,3,3,3,3,2,2,2,2,4,3,4,2,2,3,3,2,2,3,3,4,4,4,4,3,4,4,3,2,3,2,2
"Tsinghua",1997,2,7,2,2,2,1,0,0,2,0,36.8,36.9,36.7,30.580093383789,87,17,7,3,2,1,0,4,4,5,0,6,4,3,3,1,1,2,8,3,1,1,1,2,1,1,"FD¶¯ÂþÉç",NA,NA,NA,NA,NA,NA,NA,NA,NA,3,2,2,3,3,4,2,2,1,3,2,4,4,3,2,2,4,4,4,4,3,2,4,2,3,3,2,2,3,2,3,3,2,2,3,3,3,3,3,3,3,2,2,2,2,3,3,4,2,2,2,3,3,4,6,4,2,1,2,4,3,4,2,4,3,6,3,4,4,4,5,5,3,4,6,4,6,2,5,4,4,5,4,4,4,4,4,4,4,4,4,4,5,4,2,6,6,6,6,4,4,4,4,4,4,4,3,3,4,2,2,4,2,2,2,2,2,2,2,3,4,4,4,2,3,3,2,2,2,2,2,4,3,3,2,3,3,2,4,4,2,2,3,5,3,1,2,3,3,2,3,3,2,2,3,2,3,2,3,3,3,4,4,4,4,1,3,4,3,2,2,4,4,2,2,3,3,2,3
"Tsinghua",1997,2,1,2,2,2,1,0,0,2,0,36.8,36.75,36.85,30.580093383789,66,13,7,3,2,1,0,4,4,5,0,6,4,7,6,1,1,2,4,1,1,1,1,2,1,1,"Ñ§Éú»á",NA,NA,NA,NA,5,NA,NA,NA,NA,4,4,3,2,5,4,1,4,1,1,3,3,3,1,2,3,4,4,2,3,2,3,5,2,4,3,1,2,3,2,4,4,2,2,4,4,4,4,4,3,3,3,3,2,2,3,4,4,4,4,4,4,5,4,4,4,4,4,4,4,4,4,4,4,4,4,4,4,4,4,4,4,4,4,3,4,4,4,4,4,4,4,4,4,4,4,4,5,5,5,5,5,3,2,4,4,4,5,5,4,2,2,4,3,4,4,3,3,2,2,2,3,2,4,2,3,2,4,2,2,2,2,2,4,4,4,2,1,1,1,1,4,3,1,2,4,4,2,2,3,2,2,3,4,4,2,2,4,4,3,4,4,3,2,2,4,4,4,3,3,2,4,3,4,4,2,3,4,3,2,3,2,2,4,4,3,3,3,3
"Kassel",1997,2,2,1,4,2,1,16,0,2,NA,36.8,36.8,36.8,51,88,1,1,1,2,1,NA,4,4,4,2,6,3,4,3,1,NA,2,6,3,2,4,2,1,NA,1,NA,NA,NA,NA,NA,NA,NA,NA,NA,NA,3,3,5,5,4,3,3,3,4,4,4,3,4,3,4,4,3,3,3,3,3,2,3,2,4,3,2,4,4,3,4,4,3,3,4,4,5,4,4,4,4,1,3,2,3,2,4,2,3,2,2,4,3,5,3,3,1,3,4,2,3,3,2,5,6,1,2,4,2,1,2,1,1,2,2,2,1,1,2,5,5,1,3,5,4,4,5,4,5,3,5,5,6,3,5,4,5,4,5,4,2,2,2,3,3,3,2,2,3,3,3,2,4,2,2,4,5,7,4,4,2,3,2,4,1,4,3,4,2,2,3,3,2,2,3,4,2,1,4,2,2,3,3,4,3,5,4,4,4,3,4,4,1,1,1,2,4,4,5,3,2,4,4,2,3,4,2,4,3,4,4,3,2,2,4,3,3,2,4
"Tsinghua",1997,2,7,1,3,2,1,0,0,2,0,36.84,36.88,36.8,30.580093383789,72,14,7,3,2,1,0,4,4,5,0,8,2,6,6,1,4,2,5,1,1,1,3,2,2,2,NA,NA,NA,NA,NA,NA,NA,NA,NA,NA,3,3,2,4,3,3,3,2,4,2,3,4,3,1,1,1,3,3,3,3,1,4,4,1,3,4,1,2,2,2,3,2,2,2,2,2,2,2,2,2,2,2,2,2,2,3,2,3,1,1,2,4,3,2,2,1,2,2,2,2,2,1,4,4,2,4,2,3,1,2,1,2,2,2,3,3,3,3,2,3,3,2,3,4,4,4,4,4,4,3,4,4,3,3,3,4,5,5,5,2,2,2,2,2,2,2,3,2,3,2,2,4,2,3,3,3,4,3,2,2,2,5,3,3,4,4,2,2,2,2,2,4,4,2,3,2,2,2,4,3,2,2,3,4,4,3,2,4,4,3,4,4,2,2,2,2,2,2,3,4,3,3,3,4,3,2,3,4,3,2,3,3,3,3,3,3,3,2,4
"UCSB",1997,2,7,1,4,2,1,2,0,2,NA,36.88888889,37.05555556,36.72222222,34.4329071,80,8.333333333,5,1,2,1,NA,4,4,4,1,4,2,3,3,2,7,2,8,1,NA,NA,8,1,NA,1,NA,NA,NA,NA,NA,NA,NA,NA,NA,NA,3,3,3,4,2,4,2,3,2,5,4,4,4,2,3,5,3,3,3,3,3,2,4,4,5,2,3,4,4,4,4,3,2,4,4,4,5,5,5,5,5,2,2,3,4,3,5,2,2,1,2,1,2,4,1,2,1,2,2,4,5,2,7,2,1,2,1,6,1,1,1,1,1,1,1,1,1,1,1,3,3,1,2,4,5,4,5,5,5,5,4,4,4,5,4,3,4,4,4,2,3,2,2,3,2,3,2,3,2,2,3,2,2,2,2,4,6,5,5,3,4,6,2,4,4,4,2,4,4,3,3,4,4,2,4,4,3,2,2,4,3,4,4,4,4,5,5,5,3,3,4,4,1,1,1,2,5,4,5,1,2,3,4,2,3,4,2,3,4,5,5,5,2,5,4,3,3,3,4
"Kassel",1997,2,6,2,3,2,1,1,0,2,NA,36.9,37,36.8,51.316696166992,54,1,1,1,2,1,NA,4,2,5,NA,3,1,7,7,1,NA,2,8,1,NA,NA,6,1,NA,2,"Uni","Sport",NA,NA,NA,7,4,NA,NA,NA,3,3,3,3,4,4,1,2,2,2,3,4,4,3,4,4,3,2,3,2,4,4,3,4,3,2,3,4,3,3,4,2,1,4,2,4,5,4,5,4,5,2,4,2,3,3,5,6,6,6,6,6,6,6,6,6,4,2,6,6,5,7,6,6,3,7,3,6,2,5,5,2,3,3,3,3,3,3,3,5,3,2,3,4,4,3,5,4,4,3,4,4,7,6,7,5,6,5,6,4,4,2,4,5,3,4,4,2,3,4,2,2,2,3,2,4,6,3,3,3,2,5,3,2,2,4,3,2,2,2,2,4,4,1,4,5,2,2,3,2,3,4,2,3,5,5,5,4,3,3,4,3,2,2,3,3,4,4,4,2,2,3,3,4,5,4,2,4,4,5,5,4,3,2,3,3,4,3,4
"UCSB",1997,1,7,1,4,2,1,2,0,2,NA,36.91666667,37,36.83333333,34.4329071,64,6.111111111,5,1,2,1,NA,4,4,5,NA,7,7,6,6,1,NA,2,6,1,NA,NA,1,1,NA,1,NA,NA,NA,NA,NA,NA,NA,NA,NA,NA,5,4,4,4,4,4,4,4,3,4,4,4,4,2,2,2,3,2,2,2,2,2,2,2,4,2,2,2,2,2,2,2,2,2,2,2,2,2,2,2,2,2,2,2,2,2,2,2,2,2,2,2,2,2,2,3,2,3,2,2,2,2,2,2,2,2,1,2,2,2,1,2,1,2,1,2,1,1,2,4,4,1,2,5,5,5,5,5,3,3,4,4,2,4,4,4,3,3,3,2,2,1,2,2,2,2,2,2,2,1,2,3,2,4,2,3,3,5,2,2,2,2,4,3,4,3,4,4,3,4,3,4,3,4,4,3,3,3,3,4,3,3,2,4,3,4,3,3,3,4,4,4,3,3,3,3,4,4,2,3,4,3,3,2,4,4,4,4,4,4,4,4,4,4,2,4,4,4,3
"UCSB",1997,1,4,2,3,2,1,2,0,1,1,36.91666667,36.72222222,37.11111111,34.4329071,83,13.33333333,5,1,2,1,NA,4,2,1,NA,2,2,1,2,1,NA,2,1,1,NA,NA,2,1,NA,1,NA,NA,NA,NA,NA,NA,NA,NA,NA,NA,1,1,1,2,2,1,1,2,2,2,2,2,2,4,4,4,2,2,3,2,4,2,2,4,4,2,4,4,4,4,4,4,4,4,4,4,4,4,4,4,4,4,4,4,4,4,4,4,5,4,6,4,6,5,4,3,4,4,4,4,5,5,3,4,4,6,1,5,1,6,7,3,3,3,3,3,6,4,4,3,3,1,5,4,4,4,4,4,4,4,4,4,5,7,7,7,5,2,3,3,4,3,3,4,4,4,4,4,3,2,2,3,2,3,1,4,3,2,1,1,1,1,5,3,4,4,2,2,2,5,5,5,4,2,2,2,2,4,1,3,1,2,4,3,4,4,1,4,1,5,5,2,3,4,3,2,4,4,4,2,2,4,4,4,2,4,4,4,4,2,4,2,5,4,4,4,4,5,5
"UCSB",1997,1,6,1,2,2,1,12,0,2,NA,36.94444444,36.83333333,37.05555556,34.4329071,86,12.22222222,5,1,2,1,NA,4,2,4,1,7,4,6,5,1,NA,2,8,1,NA,NA,6,1,NA,1,NA,NA,NA,NA,NA,NA,NA,NA,NA,NA,1,1,3,4,3,2,1,1,3,2,2,1,1,1,3,4,3,4,4,4,3,2,5,2,5,2,5,5,4,3,4,2,2,2,2,3,4,2,3,2,1,1,2,1,1,1,4,4,2,4,5,4,5,4,6,4,2,6,2,4,2,5,2,6,2,1,1,7,1,4,4,2,1,1,2,2,2,2,1,6,4,1,2,4,5,5,5,5,4,3,4,4,4,4,3,3,4,4,4,3,1,1,4,1,2,4,1,5,4,2,1,1,2,3,2,5,6,5,5,5,5,3,5,4,4,3,2,5,2,3,4,4,2,2,4,4,4,4,2,2,3,4,4,4,4,3,2,4,4,3,4,4,1,1,1,2,2,4,2,4,4,4,5,4,4,2,2,4,4,2,2,2,4,2,2,2,2,2,1
"UCSB",1997,2,7,1,1,2,1,0,0,2,NA,36.94444444,37,36.88888889,34.4329071,65,9.444444444,5,1,5,8,3,2,2,2,2,2,3,2,2,2,1,2,2,3,2,3,4,1,NA,1,NA,NA,NA,NA,NA,NA,NA,NA,NA,NA,3,3,3,3,3,3,3,3,3,3,3,3,3,5,4,5,3,4,3,3,5,3,3,4,5,3,5,4,2,2,3,4,4,5,3,3,4,2,2,4,3,2,3,4,2,4,3,4,4,4,4,4,4,4,4,4,4,4,4,4,4,4,4,4,4,4,4,4,4,4,4,4,4,4,4,4,4,4,4,4,4,4,4,3,3,4,2,3,3,3,2,4,7,4,3,5,4,3,5,3,3,3,3,3,3,3,3,3,3,3,3,3,3,3,3,3,3,4,5,4,6,5,3,3,3,2,3,4,3,2,3,3,2,3,5,4,3,3,4,2,3,4,3,4,5,5,5,3,3,3,2,4,2,3,3,2,4,4,4,3,2,4,3,4,3,2,4,3,3,4,2,3,4,1,3,3,4,3,2
"UCSB",1997,2,6,2,3,2,2,0,0,2,NA,36.94444444,36.77777778,37.11111111,34.4329071,72,10.55555556,5,1,2,1,NA,4,2,5,NA,1,NA,5,3,1,NA,2,8,1,NA,NA,8,1,NA,1,NA,NA,NA,NA,NA,NA,NA,NA,NA,NA,3,2,4,3,4,3,2,3,4,3,4,4,2,3,3,3,3,3,3,3,3,3,3,3,4,3,4,4,4,2,4,2,2,4,4,4,4,3,3,4,3,3,3,3,3,4,4,4,5,4,6,4,6,3,5,4,4,4,4,5,5,5,4,3,4,5,5,5,5,5,5,3,5,5,4,3,5,5,5,5,5,3,4,4,3,4,2,3,4,2,4,3,6,4,5,5,6,6,4,5,5,3,4,2,4,5,5,5,5,2,3,4,3,4,3,3,3,3,5,2,3,2,2,4,4,4,4,5,2,4,5,3,2,3,2,2,4,2,2,4,2,4,4,5,3,5,5,3,3,2,3,2,3,4,3,2,4,4,2,1,4,4,5,3,4,2,2,4,4,2,3,4,5,5,3,3,3,1,4
"Bamberg",1997,2,5,2,2,2,1,14,0,2,NA,36.95,37,36.9,49.880004882812,63,4,1,1,2,1,NA,4,4,5,NA,4,1,4,4,1,NA,2,8,1,NA,NA,2,2,3,1,NA,NA,NA,NA,NA,NA,NA,NA,NA,NA,2,1,2,4,5,3,1,1,2,2,1,4,2,4,4,4,3,4,5,3,5,3,4,5,5,4,4,3,5,1,4,3,1,4,4,5,4,4,3,5,3,1,2,2,2,3,4,7,6,7,5,7,7,5,7,6,5,3,5,4,2,6,4,5,4,5,2,6,1,3,2,1,3,6,4,2,2,4,1,7,7,2,5,4,4,2,5,4,4,3,3,3,3,3,4,3,6,5,6,4,5,2,5,3,4,5,4,4,3,5,3,2,2,5,3,5,7,7,5,6,3,4,1,1,2,4,2,5,3,3,4,4,4,1,3,4,3,2,4,3,4,4,3,5,3,5,4,3,3,2,2,3,3,3,2,1,1,4,4,2,1,4,4,3,5,5,2,4,4,5,5,4,3,5,5,2,3,1,5
"UCSB",1997,2,5,2,3,2,1,0,0,2,NA,36.97222222,36.77777778,37.16666667,34.4329071,69,8.333333333,5,1,2,1,NA,4,2,4,1,4,4,3,2,1,NA,2,5,1,NA,NA,1,1,NA,1,NA,NA,NA,NA,NA,NA,NA,NA,NA,NA,4,5,2,3,3,4,3,4,2,3,3,2,4,3,2,2,2,2,2,2,3,2,3,4,4,3,2,2,4,3,2,2,1,4,3,3,4,2,3,2,3,2,2,2,2,1,4,2,5,3,5,3,2,5,4,5,3,2,2,3,2,4,2,3,2,2,3,6,3,3,4,2,2,3,3,3,5,2,3,3,4,3,3,4,4,4,4,4,3,2,3,2,4,3,2,4,2,2,2,2,2,2,2,2,3,2,2,2,2,2,2,4,2,2,4,4,6,7,4,4,4,4,2,4,4,4,3,4,4,5,5,5,4,2,4,4,4,4,2,4,2,2,4,3,4,2,2,3,3,4,3,3,2,2,3,2,4,4,4,3,2,2,3,2,2,2,2,4,4,2,2,3,4,4,2,2,2,2,2
"UCSB",1997,1,4,2,3,2,1,3,0,2,NA,36.97222222,36.94444444,37,34.4329071,76,10,5,1,2,1,NA,4,4,5,NA,6,1,5,5,1,NA,2,8,1,NA,NA,3,1,NA,2,"QSU","FUQIT",NA,NA,NA,5,6,NA,NA,NA,4,3,3,1,4,4,2,3,4,2,4,4,4,2,2,3,2,2,2,2,2,2,3,3,5,2,3,5,5,4,5,4,2,4,5,4,4,4,4,4,4,3,4,4,2,2,4,2,2,2,4,5,2,5,5,3,2,2,5,2,5,2,2,5,2,2,2,3,2,2,2,2,3,3,2,4,3,2,2,3,4,2,2,4,5,4,4,5,5,5,5,4,6,6,5,5,6,4,5,2,2,2,2,2,2,2,2,2,2,2,2,2,2,2,3,4,3,4,2,2,3,2,1,1,4,5,5,5,3,2,5,2,2,2,2,4,4,3,2,4,2,4,5,3,4,4,4,4,4,3,4,2,2,2,2,2,4,4,4,2,2,4,2,4,2,3,2,4,4,4,2,2,3,4,2,2,3,2,2
"Serbia",1997,2,7,2,3,2,1,3,0,2,NA,37,37.2,36.8,44.818603515625,45,12,6,1,2,1,NA,4,4,5,NA,4,4,5,5,2,1,2,5,1,NA,NA,1,1,NA,1,NA,NA,NA,NA,NA,NA,NA,NA,NA,NA,4,4,3,5,5,4,3,3,4,4,4,5,4,2,3,3,4,2,1,2,3,2,2,3,4,2,2,2,3,2,2,1,1,2,1,2,2,3,3,4,1,1,2,1,1,2,1,4,4,4,4,4,2,4,4,4,4,4,4,4,2,4,4,3,4,4,4,4,4,4,4,4,4,4,4,4,4,4,4,4,4,4,4,5,4,3,4,4,3,3,3,2,3,2,3,2,3,2,3,2,2,1,2,3,2,3,3,2,2,2,2,2,2,3,2,3,4,4,1,3,4,3,4,2,3,4,2,2,2,2,4,4,3,2,2,2,3,4,3,3,3,3,3,2,3,2,2,2,2,4,3,3,3,4,3,2,2,3,2,4,3,2,3,4,4,2,3,4,3,2,2,3,3,2,3,2,3,2,4
"Zurich",1997,2,6,1,3,2,1,0,0,1,5,37,37,37,47.030395507812,76,4,1,1,2,1,NA,4,2,4,2,2,2,6,6,1,NA,2,8,3,1,5,1,1,NA,1,NA,NA,NA,NA,NA,NA,NA,NA,NA,NA,3,3,3,2,4,4,3,4,3,4,4,4,4,2,3,2,3,3,3,2,2,3,2,3,3,2,2,2,4,4,4,3,2,3,2,3,4,4,4,4,4,2,2,2,3,2,3,3,2,2,1,1,3,2,3,6,2,2,1,3,2,6,1,5,1,2,1,5,1,1,1,2,1,1,1,1,1,1,1,4,5,3,1,3,3,3,3,3,3,2,2,2,7,3,5,3,5,5,5,2,2,4,2,3,3,4,2,2,4,4,2,4,2,4,2,3,3,4,2,4,2,1,3,2,4,4,3,4,2,2,3,3,3,2,3,4,4,2,4,4,4,4,4,4,3,4,4,4,2,4,3,1,1,4,2,3,3,3,4,3,3,4,3,2,4,4,3,3,4,5,3,2,1,4,4,2,2,1,5
"UCSB",1997,2,7,2,4,2,1,0,0,2,NA,37,36.94444444,37.05555556,34.4329071,69,8.333333333,5,1,2,1,NA,4,2,5,NA,8,4,5,5,2,2,2,4,1,NA,NA,3,2,3,2,"Cypress SC","OA SADD",NA,NA,NA,2,3,NA,NA,NA,4,5,4,5,5,4,5,3,4,4,4,4,4,3,3,3,2,2,2,2,3,2,2,3,4,2,3,3,4,2,4,3,4,3,2,3,4,4,4,4,4,1,3,3,3,4,3,2,4,2,4,4,2,2,2,2,2,3,4,2,2,5,4,5,1,2,2,2,2,2,3,4,2,2,2,2,3,2,3,3,3,2,2,5,5,5,5,5,4,3,3,4,5,6,5,4,3,4,4,2,4,1,2,3,2,3,2,3,2,1,2,2,2,3,1,5,7,5,4,3,5,3,2,4,4,4,3,3,3,3,3,4,3,2,3,3,3,4,2,3,3,2,4,3,5,3,4,4,4,4,4,4,1,1,3,2,4,4,4,3,2,4,4,4,3,1,3,4,3,2,1,3,2,3,3,3,3,2,3
"UCSB",1997,2,1,2,3,2,1,0,0,1,0.25,37.02777778,37.27777778,36.77777778,34.4329071,58,10,5,1,2,1,NA,4,4,5,NA,8,2,8,8,2,1,2,4,1,NA,NA,8,1,NA,2,NA,NA,NA,NA,NA,NA,NA,NA,NA,NA,2,2,4,3,1,2,3,3,2,3,4,1,2,3,4,4,2,3,2,2,2,3,3,3,5,2,3,4,4,2,5,5,4,2,5,4,5,5,4,4,2,1,4,2,5,2,5,1,2,1,1,1,3,2,3,1,5,2,2,2,3,1,1,5,2,3,3,5,3,2,3,3,2,4,1,3,3,2,4,6,7,2,4,5,5,5,5,5,5,5,5,5,3,5,5,6,4,4,4,2,2,2,1,2,2,3,1,1,2,2,2,1,1,2,2,5,7,6,5,7,6,2,2,5,4,4,2,2,2,2,5,4,2,2,4,4,4,3,2,4,3,4,5,4,5,4,4,3,5,5,3,4,3,2,3,2,5,4,2,3,3,4,3,3,4,2,2,4,4,4,4,4,1,4,4,4,4,3,2
"UCSB",1997,1,7,1,3,2,1,2,0,1,1,37.05555556,37,37.11111111,34.4329071,80,8.333333333,5,1,2,1,NA,3,3,4,1,7,3,8,8,1,NA,2,4,1,NA,NA,8,1,NA,1,NA,NA,NA,NA,NA,NA,NA,NA,NA,NA,3,3,3,2,2,4,2,3,3,4,4,2,3,3,5,3,2,2,1,3,3,2,2,5,4,2,2,1,1,1,3,1,1,1,1,1,1,1,1,1,1,1,1,1,1,1,1,3,6,3,4,4,3,2,5,4,2,4,2,6,4,3,3,6,3,1,3,2,2,3,2,2,3,2,3,2,2,3,2,2,3,2,3,5,5,5,5,5,5,5,5,5,7,7,7,7,7,7,7,4,3,3,2,2,3,3,3,3,4,3,3,5,3,3,3,3,4,4,4,4,7,4,2,2,4,4,4,4,4,4,3,3,3,3,4,3,4,3,2,2,3,4,4,3,5,5,5,5,5,5,4,4,3,3,3,4,3,5,1,5,3,3,2,3,3,3,4,3,4,3,2,4,3,4,3,4,3,5,3
"UCSB",1997,2,7,2,4,2,1,2,0,2,NA,37.05555556,37,37.11111111,34.4329071,57,6.111111111,5,1,2,1,NA,4,4,5,NA,8,3,8,8,2,1,2,8,1,NA,NA,1,1,NA,1,NA,NA,NA,NA,NA,NA,NA,NA,NA,NA,4,2,2,3,2,4,1,2,1,2,5,1,4,2,3,4,3,2,2,3,3,2,1,3,5,3,4,3,5,4,3,5,5,5,5,5,4,5,4,4,2,4,4,4,3,3,3,6,7,6,7,7,7,7,7,5,5,5,6,6,6,4,6,7,5,5,4,6,5,5,3,2,5,4,4,2,2,3,3,3,2,5,6,5,5,5,5,5,5,5,5,5,7,6,7,7,7,5,5,2,4,1,3,2,2,4,4,2,2,2,2,4,1,2,1,4,6,5,5,4,6,1,1,3,2,5,4,3,3,4,4,3,2,1,3,4,4,2,2,4,2,3,2,4,5,5,5,5,4,3,4,4,1,3,3,4,5,5,1,3,1,3,4,1,4,4,2,4,4,4,5,5,1,3,4,3,2,1,4
"UCSB",1997,1,7,1,4,2,1,0,0,2,NA,37.08333333,37.11111111,37.05555556,34.4329071,64,6.111111111,5,1,2,1,NA,4,4,4,1,2,1,5,5,2,1,2,5,1,NA,NA,1,1,NA,1,NA,NA,NA,NA,NA,NA,NA,NA,NA,NA,4,4,4,4,3,3,3,4,4,3,4,4,4,2,2,4,3,2,2,2,3,4,2,2,5,2,4,2,4,1,4,2,3,3,1,1,3,1,2,2,3,1,1,1,4,1,1,1,2,1,4,4,1,1,4,5,1,2,2,2,1,1,2,1,2,2,2,5,2,2,2,1,1,1,3,4,3,5,2,4,4,2,4,5,5,5,5,5,5,5,5,5,2,5,5,4,5,6,4,3,3,2,4,5,3,4,3,3,2,3,2,2,3,4,3,2,1,2,1,2,2,2,3,2,2,5,4,3,3,3,4,2,2,2,2,2,3,3,3,4,3,2,4,3,1,5,3,4,4,2,3,2,1,1,1,2,3,4,5,3,3,4,4,4,3,3,2,5,5,1,2,2,2,5,2,2,4,5,1
"Kassel",1997,2,5,2,2,2,1,0,2,2,NA,37.105,37.07,37.14,50.733306884766,NA,NA,1,1,2,1,NA,4,4,5,NA,8,5,4,4,2,1,2,8,1,NA,NA,1,1,NA,1,NA,NA,NA,NA,NA,NA,NA,NA,NA,NA,2,3,2,3,3,4,1,2,2,3,4,3,2,3,3,3,2,2,2,2,2,3,2,4,5,2,2,1,3,3,3,2,1,2,2,3,4,2,1,1,2,1,1,1,1,2,2,4,4,4,4,4,4,4,4,4,4,4,4,4,4,4,4,4,4,4,6,2,4,4,4,4,4,4,4,4,4,4,4,7,7,4,4,5,5,4,5,3,1,1,5,4,6,5,5,5,5,5,5,2,4,1,4,4,2,2,4,2,2,4,2,2,3,3,3,5,5,5,3,3,3,3,1,4,1,5,5,3,4,3,5,2,4,1,2,5,5,2,2,4,2,4,5,2,5,4,3,3,3,4,3,2,3,2,3,2,5,4,3,5,2,2,3,3,1,2,1,4,4,2,4,3,3,2,3,2,4,1,1
"Poland",1998,2,7,2,3,2,1,21,0,2,NA,35.6,35.3,35.9,51.100006103516,65,2,9,1,2,1,NA,4,4,4,2,3,1,4,4,2,1,2,8,2,1,1,2,1,NA,1,NA,NA,NA,NA,NA,NA,NA,NA,NA,NA,2,2,2,3,4,3,1,3,2,2,4,2,2,2,4,3,4,4,5,4,5,3,3,3,5,4,1,3,3,3,4,2,3,2,2,2,4,3,4,4,4,2,4,4,3,4,3,5,3,4,4,6,4,4,3,2,2,6,2,2,2,4,6,4,2,3,4,4,2,5,5,5,4,5,2,2,4,3,3,6,3,2,2,4,4,4,5,5,3,2,4,2,5,6,6,6,5,5,5,3,3,2,3,3,3,3,3,2,3,2,3,2,1,3,2,4,8,3,2,3,4,6,4,5,4,4,1,2,2,3,2,5,2,2,5,5,4,2,2,2,2,3,4,3,4,4,4,4,4,3,3,3,1,1,2,2,2,4,2,3,3,3,3,3,4,3,3,3,4,4,4,5,4,3,3,3,3,3,1
"Kassel",1998,2,7,1,2,2,1,2,0,1,1,35.875,35.74,36.01,51.36669921875,69,-1,1,1,2,1,NA,4,1,3,1,3,1,4,8,2,2,2,2,1,NA,NA,2,2,3,2,"Schulklasse","Volleyball","Familie",NA,NA,20,15,3,NA,NA,1,2,1,2,1,3,1,2,1,3,3,2,2,5,4,5,5,3,3,3,4,3,3,5,5,2,5,2,2,1,2,2,2,1,2,1,4,4,3,4,2,2,2,2,1,2,2,3,4,5,4,4,1,2,5,3,3,3,2,3,1,4,2,5,1,4,3,5,7,5,6,6,5,3,3,5,4,5,3,7,7,4,3,4,1,2,2,2,2,1,3,2,1,1,1,1,1,1,1,4,3,3,3,4,4,5,4,2,4,2,2,3,4,4,3,4,6,5,6,6,6,6,4,3,2,5,5,3,4,3,4,2,2,1,2,3,3,4,1,3,2,2,4,5,3,2,3,3,3,3,3,3,4,3,3,2,2,4,2,3,3,2,2,4,4,2,1,3,4,3,2,4,2,4,3,4,4,4,4
"Poland",1998,2,5,2,3,2,1,16,8,2,NA,36.6,36.7,36.5,52.25,77,3,9,1,2,1,NA,4,4,5,1,8,3,6,4,1,NA,2,8,2,1,1,1,2,2,2,"MU praca","Rodzina","Studenci","Gimnazjum","Dom",3,5,20,2,2,2,1,4,4,3,4,1,4,5,4,3,4,5,3,3,3,4,5,4,4,2,3,3,4,4,5,2,4,3,4,3,5,4,5,4,4,5,3,5,5,5,2,4,4,3,3,5,6,5,6,6,6,6,6,6,5,4,2,4,2,5,6,5,5,2,3,2,4,2,3,2,5,3,3,2,2,3,2,3,4,3,2,2,5,5,5,5,5,5,2,5,5,5,4,5,5,5,6,5,2,2,3,2,4,3,2,2,2,2,2,2,2,1,3,2,3,3,5,2,2,4,3,2,4,2,4,3,4,3,2,4,4,2,2,4,4,4,3,3,3,3,4,3,4,4,5,4,4,4,3,4,4,2,2,3,2,5,4,3,3,2,3,4,4,3,2,2,4,4,4,3,4,4,2,4,4,4,3,4
"Poland",1998,2,6,2,3,2,1,16,0,2,NA,36.7,36.7,36.7,54.350006103516,85,0,9,1,2,1,NA,4,4,5,1,2,1,2,2,2,1,2,7,2,1,1,3,1,NA,1,NA,NA,NA,NA,NA,NA,NA,NA,NA,NA,3,3,3,2,3,3,2,3,2,4,5,4,4,3,3,3,4,4,4,3,3,4,3,3,4,4,2,4,2,2,3,4,2,2,2,3,2,2,4,2,3,2,2,2,2,2,3,4,4,4,4,4,4,4,4,4,4,6,4,4,4,4,4,4,4,4,4,4,4,4,4,4,4,4,4,4,4,4,4,4,4,4,4,5,4,3,4,5,4,2,3,3,5,6,6,6,6,6,6,2,4,2,4,2,2,3,3,3,2,2,2,2,1,4,2,4,8,4,2,2,7,5,2,4,5,4,1,4,2,3,3,5,2,1,4,2,2,3,2,2,2,4,5,4,3,2,2,3,3,2,3,2,3,2,3,1,1,4,2,4,2,2,2,4,4,2,2,2,4,2,2,2,5,5,2,3,3,2,4
"Zurich",1998,2,7,2,2,2,1,6,0,2,NA,36.85,36.8,36.9,NA,76,-1,1,1,3,1,NA,4,4,4,1,8,3,8,8,1,NA,2,8,1,NA,NA,1,2,5,2,"Nationaler Dachverband","Kantonaler Dachverband",NA,NA,NA,5,3,NA,NA,NA,4,1,3,3,4,5,2,3,2,4,4,2,2,5,4,4,4,3,3,3,4,3,3,5,4,2,4,2,4,4,4,2,2,3,2,2,4,4,4,4,3,2,2,2,2,3,4,7,6,5,6,6,6,5,6,6,5,6,5,7,6,3,7,7,6,2,1,6,2,2,2,2,3,3,2,1,1,1,2,4,3,2,1,3,4,4,4,3,3,3,4,3,5,4,5,4,4,4,5,4,3,3,3,4,3,4,2,2,4,4,1,1,2,3,2,5,5,4,5,5,2,5,1,4,1,5,4,3,3,3,4,3,4,1,2,3,4,2,4,3,2,5,4,4,3,5,5,5,4,4,5,4,2,3,2,3,3,5,5,2,2,5,5,3,4,5,2,3,3,5,5,4,2,5,5,4,4,1,5
"Zurich",NA,NA,NA,NA,4,NA,NA,NA,NA,NA,NA,35.4,35.4,NA,NA,NA,NA,1,1,NA,NA,NA,NA,NA,NA,NA,NA,NA,NA,NA,NA,NA,NA,NA,NA,NA,NA,NA,NA,NA,NA,NA,NA,NA,NA,NA,NA,NA,NA,NA,NA,NA,NA,NA,NA,NA,NA,NA,NA,NA,NA,NA,NA,NA,2,2,1,1,2,1,2,1,2,2,2,4,1,2,NA,NA,NA,NA,NA,NA,NA,NA,NA,NA,NA,NA,NA,NA,NA,NA,NA,NA,NA,NA,NA,NA,NA,NA,NA,NA,NA,NA,NA,NA,NA,NA,NA,NA,NA,NA,NA,NA,NA,NA,NA,NA,NA,NA,NA,NA,NA,NA,NA,NA,NA,NA,NA,NA,NA,NA,NA,NA,NA,NA,NA,NA,NA,NA,NA,5,3,4,4,3,3,5,NA,NA,NA,NA,NA,NA,NA,NA,NA,NA,NA,NA,NA,NA,NA,NA,NA,NA,NA,NA,NA,NA,NA,3,2,4,4,3,3,3,3,3,2,3,2,2,3,3,3,3,4,2,3,3,5,3,3,4,4,3,3,3,3,1,3,3,4,4,5,5,3,2,2,4,3,3,2,2,4,5,3,3,3,2,2,3,2,3,4,1
"UCSB",NA,3,7,2,3,2,2,33,3,2,NA,35.55555556,35.55555556,35.55555556,34.0184021,72,10.55555556,5,1,2,1,NA,4,4,5,NA,3,3,3,5,2,3,2,4,1,NA,NA,2,2,3,1,NA,NA,NA,NA,NA,NA,NA,NA,NA,NA,1,5,5,5,5,1,5,1,5,5,1,5,5,1,1,1,5,5,5,5,1,5,5,1,1,5,1,1,1,1,1,1,1,1,1,1,1,1,1,1,1,1,1,1,1,1,1,5,5,5,5,5,5,5,5,3,5,3,5,5,5,5,5,5,5,5,3,5,3,5,5,5,3,3,3,3,3,3,5,3,3,3,3,4,4,4,4,4,4,4,4,4,1,1,1,1,1,1,1,4,4,4,2,4,4,4,4,4,4,4,2,4,2,4,2,5,8,1,8,7,7,7,5,5,5,5,5,5,5,5,5,5,5,5,5,5,5,5,5,5,5,5,5,5,5,5,5,5,5,5,5,5,5,5,5,5,5,5,5,5,5,5,5,5,5,5,5,5,5,5,5,5,5,5,5,5,5,5,5
"Chile",NA,NA,NA,NA,NA,NA,NA,NA,NA,NA,NA,35.6,35.6,NA,33.426280975342,79,2,2,1,NA,NA,NA,NA,NA,NA,NA,NA,NA,NA,NA,NA,NA,NA,NA,NA,NA,NA,NA,NA,NA,NA,NA,NA,NA,NA,NA,NA,NA,NA,NA,NA,NA,NA,NA,NA,NA,NA,NA,NA,NA,NA,NA,NA,NA,NA,NA,NA,NA,NA,NA,NA,NA,NA,NA,NA,NA,NA,NA,NA,NA,NA,NA,NA,NA,NA,NA,NA,NA,NA,NA,NA,NA,NA,NA,NA,NA,NA,NA,NA,NA,NA,NA,NA,NA,NA,NA,NA,NA,NA,NA,NA,NA,NA,NA,NA,NA,NA,NA,NA,NA,NA,NA,NA,NA,NA,NA,NA,NA,NA,NA,NA,NA,NA,NA,NA,NA,NA,NA,NA,NA,NA,NA,NA,NA,NA,NA,NA,NA,NA,NA,NA,NA,NA,NA,NA,NA,NA,NA,NA,NA,NA,NA,NA,NA,NA,NA,NA,NA,NA,NA,NA,NA,NA,NA,NA,NA,NA,NA,NA,NA,NA,NA,NA,NA,NA,NA,NA,NA,NA,NA,NA,NA,NA,NA,NA,NA,NA,NA,NA,NA,NA,NA,NA,NA,NA,NA,NA,NA,NA,NA,NA,NA,NA,NA,NA,NA,NA,NA,NA,NA,NA,NA,NA,NA,NA,NA,NA,NA,NA,NA
"UCSB",NA,NA,NA,NA,4,NA,NA,4,0,NA,NA,35.77777778,35.77777778,NA,NA,82,8.333333333,5,1,2,1,NA,4,2,5,NA,3,2,8,8,1,NA,2,8,2,1,5,8,1,NA,2,NA,NA,NA,NA,NA,NA,NA,NA,NA,NA,2,2,2,4,1,2,2,2,2,2,3,2,4,3,3,4,2,4,3,2,4,4,3,4,4,3,4,NA,NA,NA,NA,NA,NA,NA,NA,NA,NA,NA,NA,NA,NA,NA,NA,NA,NA,NA,NA,4,4,3,3,5,5,3,4,3,2,5,2,5,2,6,3,5,1,6,5,6,5,6,4,5,5,5,5,5,5,3,5,5,5,5,4,5,3,5,5,3,5,5,5,5,NA,NA,NA,NA,NA,NA,NA,3,4,1,4,3,4,5,4,4,2,4,2,4,4,4,4,5,6,3,2,2,4,5,1,2,4,5,5,4,5,4,4,3,2,4,1,2,4,1,4,2,4,2,4,4,5,4,3,5,2,5,3,3,1,4,2,2,4,3,2,2,2,4,4,4,3,2,1,4,4,2,2,2,2,4,2,2,4,2,4
"Kassel",NA,NA,NA,NA,5,NA,NA,0,0,NA,NA,35.81,35.81,NA,NA,NA,NA,1,1,2,1,NA,4,1,5,NA,5,1,8,5,1,NA,2,8,3,1,4,4,1,NA,1,NA,NA,NA,NA,NA,NA,NA,NA,NA,NA,4,2,3,4,2,2,2,3,3,4,4,3,5,3,3,3,2,2,1,2,2,3,2,3,5,2,4,5,5,4,5,5,4,2,3,4,4,4,4,3,3,2,4,4,2,2,4,5,3,4,2,4,3,1,5,5,4,3,2,4,2,2,3,3,2,4,3,4,4,6,4,5,5,3,3,3,6,6,4,7,7,3,3,5,4,5,5,3,2,2,5,4,3,5,5,4,3,2,4,1,2,1,2,1,2,1,1,1,2,1,1,3,2,4,2,4,5,3,4,2,3,4,1,4,2,4,2,4,1,2,5,4,4,1,1,4,4,1,4,4,2,3,4,4,4,3,4,3,3,3,2,2,3,2,3,4,4,4,2,4,2,2,1,5,2,2,1,4,4,2,2,4,4,3,3,4,3,2,4
"VCU",NA,NA,NA,NA,3,NA,NA,0,0,NA,NA,35.9,35.9,NA,NA,91,14.44444444,5,1,2,1,NA,4,4,5,NA,3,3,3,3,2,2,2,1,3,3,1,1,1,NA,1,NA,NA,NA,NA,NA,NA,NA,NA,NA,NA,3,2,5,2,4,4,3,3,2,5,4,5,3,3,3,3,4,4,3,2,3,3,2,2,2,2,2,5,5,2,5,4,4,3,4,5,5,5,4,4,5,3,4,1,4,3,5,4,1,2,2,1,5,1,1,2,1,7,1,2,2,1,5,1,1,1,1,1,1,1,1,1,1,1,1,1,1,1,1,2,4,1,3,4,4,4,4,4,4,3,4,4,3,6,6,6,5,6,6,5,5,1,1,4,3,4,5,4,4,5,1,2,1,1,1,2,5,7,5,5,5,5,2,5,4,4,4,5,4,4,2,2,1,1,3,2,2,2,1,1,2,5,4,5,4,5,5,5,5,4,5,5,1,1,1,2,3,1,4,1,2,4,4,1,1,1,2,5,4,5,5,2,1,4,4,4,3,2,2
"VCU",NA,NA,NA,NA,4,NA,NA,NA,NA,NA,NA,35.94444444,35.94444444,NA,NA,92,10,5,1,NA,NA,NA,NA,NA,NA,NA,NA,NA,NA,NA,NA,NA,NA,NA,NA,NA,NA,NA,NA,NA,NA,NA,NA,NA,NA,NA,NA,NA,NA,NA,NA,NA,NA,NA,NA,NA,NA,NA,NA,NA,NA,NA,NA,NA,2,2,4,1,1,1,2,2,1,2,2,5,3,3,2,4,2,4,2,3,3,2,4,2,3,3,4,2,2,2,1,2,1,2,NA,NA,NA,NA,NA,NA,NA,NA,NA,NA,NA,NA,NA,NA,NA,NA,NA,NA,NA,NA,NA,NA,NA,NA,NA,NA,NA,NA,NA,NA,NA,NA,NA,NA,NA,NA,NA,NA,NA,NA,NA,NA,NA,NA,NA,7,4,3,4,2,2,2,NA,NA,NA,NA,NA,NA,NA,NA,NA,NA,NA,NA,NA,NA,NA,NA,NA,NA,NA,NA,NA,NA,NA,NA,NA,NA,NA,NA,NA,NA,NA,NA,NA,NA,NA,NA,NA,NA,NA,NA,NA,NA,NA,NA,NA,NA,NA,NA,NA,NA,NA,NA,NA,NA,NA,NA,NA,NA,NA,NA,NA,NA,NA,NA,NA,NA,NA,NA,NA,NA,NA,NA,NA,NA,NA,NA,NA,NA,NA,NA
"Oslo",NA,NA,NA,NA,3,NA,NA,0,0,NA,NA,36,36,NA,NA,NA,NA,4,1,1,1,NA,4,4,4,2,8,2,8,6,1,NA,2,6,3,8,3,1,1,NA,1,NA,NA,NA,NA,NA,NA,NA,NA,NA,NA,4,4,4,4,3,4,4,3,3,3,4,4,4,2,2,3,2,3,2,2,3,3,2,2,5,2,2,1,1,1,3,1,1,1,1,4,2,2,2,2,2,2,1,1,2,2,2,2,2,1,2,6,3,1,2,2,1,2,2,2,2,1,1,2,1,2,2,2,2,2,1,2,2,2,1,2,1,2,2,3,5,3,2,5,5,4,5,5,4,4,4,4,6,6,6,6,6,5,5,1,1,1,2,1,1,1,1,1,1,1,5,3,2,2,4,5,7,4,3,3,3,5,2,2,2,5,5,4,4,3,4,1,1,1,2,2,5,1,3,3,4,3,3,2,3,4,4,5,5,4,5,5,1,1,1,2,4,4,4,2,2,1,2,3,3,4,2,3,3,4,4,4,2,4,4,4,3,3,4
"Poland",NA,NA,NA,NA,NA,NA,NA,NA,NA,NA,NA,36,36,NA,NA,75,7,9,1,NA,NA,NA,NA,NA,NA,NA,NA,NA,NA,NA,NA,NA,NA,NA,NA,NA,NA,NA,NA,NA,NA,NA,NA,NA,NA,NA,NA,NA,NA,NA,NA,NA,NA,NA,NA,NA,NA,NA,NA,NA,NA,NA,NA,NA,NA,NA,NA,NA,NA,NA,NA,NA,NA,NA,NA,NA,NA,NA,NA,NA,NA,NA,NA,NA,NA,NA,NA,NA,NA,NA,NA,NA,NA,NA,NA,NA,NA,NA,NA,NA,NA,NA,NA,NA,NA,NA,NA,NA,NA,NA,NA,NA,NA,NA,NA,NA,NA,NA,NA,NA,NA,NA,NA,NA,NA,NA,NA,NA,NA,NA,NA,NA,NA,NA,NA,NA,NA,NA,NA,NA,NA,NA,NA,NA,NA,NA,NA,NA,NA,NA,NA,NA,NA,NA,NA,NA,NA,NA,NA,NA,NA,NA,NA,NA,NA,NA,NA,NA,NA,NA,NA,NA,NA,NA,NA,NA,NA,NA,NA,NA,NA,NA,NA,NA,NA,NA,NA,NA,NA,NA,NA,NA,NA,NA,NA,NA,NA,NA,NA,NA,NA,NA,NA,NA,NA,NA,NA,NA,NA,NA,NA,NA,NA,NA,NA,NA,NA,NA,NA,NA,NA,NA,NA,NA,NA,NA,NA,NA,NA,NA
"Kassel",NA,NA,NA,NA,1,NA,NA,NA,NA,NA,NA,36.1,36.1,NA,NA,NA,NA,1,1,2,1,NA,4,1,1,NA,1,NA,1,1,1,NA,1,NA,1,NA,NA,1,1,NA,1,NA,NA,NA,NA,NA,NA,NA,NA,NA,NA,1,5,5,5,5,1,5,1,5,5,1,5,5,1,1,1,5,5,5,5,1,5,5,1,1,5,1,NA,NA,NA,NA,NA,NA,NA,NA,NA,NA,NA,NA,NA,NA,NA,NA,NA,NA,NA,NA,NA,NA,NA,NA,NA,NA,NA,NA,NA,NA,NA,NA,NA,NA,NA,NA,NA,NA,NA,NA,NA,NA,NA,NA,NA,NA,NA,NA,NA,NA,NA,NA,NA,NA,NA,NA,NA,NA,NA,NA,NA,NA,NA,NA,NA,7,1,1,1,1,1,1,1,1,1,5,1,1,1,1,1,1,1,5,1,5,1,5,1,1,1,1,1,1,1,NA,NA,NA,NA,NA,NA,NA,NA,NA,NA,NA,NA,NA,NA,NA,NA,NA,NA,NA,NA,NA,NA,NA,NA,NA,NA,NA,NA,NA,NA,NA,NA,NA,NA,NA,NA,NA,NA,NA,NA,NA,NA,NA,NA,NA,NA,NA,NA,NA,NA,NA,NA,NA,NA,NA,NA,NA
"SMU",NA,NA,NA,NA,1,NA,NA,1.5,0,NA,NA,36.1,36.1,NA,NA,70,27,5,1,2,1,NA,4,4,5,NA,1,NA,6,3,1,NA,2,4,1,NA,NA,1,1,NA,1,NA,NA,NA,NA,NA,NA,NA,NA,NA,NA,4,1,3,3,2,3,2,3,2,2,4,2,3,5,5,5,4,5,4,3,5,5,4,5,5,3,5,4,4,2,4,2,3,4,4,4,4,3,4,4,4,2,2,2,2,3,4,7,7,7,7,7,7,6,7,6,6,7,7,6,7,7,5,7,6,2,2,4,2,4,2,2,3,3,2,2,2,2,2,6,4,1,3,5,5,5,4,5,5,5,5,5,7,6,6,6,7,6,6,2,2,4,2,1,5,2,2,3,2,1,1,1,2,3,4,5,4,7,7,7,7,1,1,5,5,5,1,3,3,3,3,5,4,1,4,5,5,4,2,4,2,4,4,4,4,4,4,4,3,1,3,3,2,2,4,2,2,2,5,3,1,5,4,1,3,3,3,2,4,4,4,2,2,2,4,2,2,2,4
"Portugal",NA,NA,NA,NA,NA,NA,NA,NA,NA,NA,NA,36.2,36.2,NA,NA,NA,NA,8,1,NA,NA,NA,NA,NA,NA,NA,NA,NA,NA,NA,NA,NA,NA,NA,NA,NA,NA,NA,NA,NA,NA,NA,NA,NA,NA,NA,NA,NA,NA,NA,NA,NA,NA,NA,NA,NA,NA,NA,NA,NA,NA,NA,NA,NA,NA,NA,NA,NA,NA,NA,NA,NA,NA,NA,NA,NA,NA,NA,NA,NA,NA,NA,NA,NA,NA,NA,NA,NA,NA,NA,NA,NA,NA,NA,NA,NA,NA,NA,NA,NA,NA,NA,NA,NA,NA,NA,NA,NA,NA,NA,NA,NA,NA,NA,NA,NA,NA,NA,NA,NA,NA,NA,NA,NA,NA,NA,NA,NA,NA,NA,NA,NA,NA,NA,NA,NA,NA,NA,NA,NA,NA,NA,NA,NA,NA,NA,NA,NA,NA,NA,NA,NA,NA,NA,NA,NA,NA,NA,NA,NA,NA,NA,NA,NA,NA,NA,NA,NA,NA,NA,NA,NA,NA,NA,NA,NA,NA,NA,NA,NA,NA,NA,NA,NA,NA,NA,NA,NA,NA,NA,NA,NA,NA,NA,NA,NA,NA,NA,NA,NA,NA,NA,NA,NA,NA,NA,NA,NA,NA,NA,NA,NA,NA,NA,NA,NA,NA,NA,NA,NA,NA,NA,NA,NA,NA,NA,NA,NA,NA,NA
"Kassel",NA,NA,NA,NA,NA,NA,NA,NA,NA,NA,NA,36.3,36.3,NA,NA,NA,NA,1,1,NA,NA,NA,NA,NA,NA,NA,NA,NA,NA,NA,NA,NA,NA,NA,NA,NA,NA,NA,NA,NA,NA,NA,NA,NA,NA,NA,NA,NA,NA,NA,NA,NA,NA,NA,NA,NA,NA,NA,NA,NA,NA,NA,NA,NA,NA,NA,NA,NA,NA,NA,NA,NA,NA,NA,NA,NA,NA,NA,2,2,2,2,1,1,1,2,3,3,3,3,3,3,1,1,2,1,1,3,NA,NA,NA,NA,NA,NA,NA,NA,NA,NA,NA,NA,NA,NA,NA,NA,NA,NA,NA,NA,NA,NA,NA,NA,NA,NA,NA,NA,NA,NA,NA,NA,NA,NA,NA,NA,4,4,4,4,5,2,2,4,4,NA,NA,NA,NA,NA,NA,NA,NA,NA,NA,NA,NA,NA,NA,NA,NA,NA,NA,NA,NA,NA,NA,NA,4,5,7,5,5,4,4,NA,NA,NA,NA,NA,NA,NA,NA,NA,NA,NA,NA,NA,NA,NA,NA,NA,NA,NA,NA,NA,NA,NA,NA,NA,NA,NA,NA,NA,NA,NA,NA,NA,NA,NA,NA,NA,NA,NA,NA,NA,NA,NA,NA,NA,NA,NA,NA,NA,NA,NA,NA,NA,NA,NA,NA,NA
"Bamberg",NA,NA,NA,NA,3,NA,NA,NA,NA,NA,NA,36.3,36.3,NA,NA,NA,NA,1,1,NA,NA,NA,NA,NA,NA,NA,NA,NA,NA,NA,NA,NA,NA,NA,NA,NA,NA,NA,NA,NA,NA,NA,NA,NA,NA,NA,NA,NA,NA,NA,NA,NA,NA,NA,NA,NA,NA,NA,NA,NA,NA,NA,NA,NA,4,3,3,4,4,4,3,4,4,4,4,4,3,4,NA,NA,NA,NA,NA,NA,NA,NA,NA,NA,NA,NA,NA,NA,NA,NA,NA,NA,NA,NA,5,5,5,5,6,5,5,5,5,6,5,6,6,6,6,6,5,3,4,3,4,3,3,4,2,5,5,3,4,4,4,2,5,4,5,5,NA,NA,NA,NA,NA,NA,NA,NA,NA,4,4,4,2,3,2,3,NA,NA,NA,NA,NA,NA,NA,NA,NA,NA,NA,NA,NA,NA,NA,NA,4,6,7,5,4,1,1,4,4,2,5,4,2,1,2,4,1,2,2,1,3,3,1,4,2,3,4,4,3,3,5,4,4,2,4,4,3,1,4,2,1,5,4,2,1,2,3,2,5,4,3,3,2,4,4,4,3,3,4,4,3,3,1,4
"Zurich",NA,NA,NA,NA,NA,NA,NA,NA,NA,NA,NA,36.3,36.3,NA,NA,NA,NA,1,1,NA,NA,NA,NA,NA,NA,NA,NA,NA,NA,NA,NA,NA,NA,NA,NA,NA,NA,NA,NA,NA,NA,NA,NA,NA,NA,NA,NA,NA,NA,NA,NA,NA,NA,NA,NA,NA,NA,NA,NA,NA,NA,NA,NA,NA,NA,NA,NA,NA,NA,NA,NA,NA,NA,NA,NA,NA,NA,NA,NA,NA,NA,NA,NA,NA,NA,NA,NA,NA,NA,NA,NA,NA,NA,NA,NA,NA,NA,NA,NA,NA,NA,NA,NA,NA,NA,NA,NA,NA,NA,NA,NA,NA,NA,NA,NA,NA,NA,NA,NA,NA,NA,NA,NA,NA,NA,NA,NA,NA,NA,NA,NA,NA,NA,NA,NA,NA,NA,NA,NA,NA,NA,NA,NA,2,3,4,3,2,2,3,NA,NA,NA,NA,NA,NA,NA,NA,NA,NA,NA,NA,NA,NA,NA,NA,NA,NA,NA,NA,NA,NA,NA,NA,NA,NA,NA,NA,NA,NA,NA,NA,NA,NA,NA,NA,NA,NA,NA,NA,NA,NA,NA,NA,NA,NA,NA,NA,NA,NA,NA,NA,NA,NA,NA,NA,NA,NA,NA,NA,NA,NA,NA,NA,NA,NA,NA,NA,NA,NA,NA,NA,NA,NA,NA,NA,NA,NA,NA,NA
"Bamberg",NA,NA,NA,NA,NA,NA,NA,12,0,NA,NA,36.3,36.3,NA,NA,NA,NA,1,1,1,1,NA,4,2,4,4,3,3,5,4,1,NA,2,4,1,NA,NA,2,1,NA,1,NA,NA,NA,NA,NA,NA,NA,NA,NA,NA,NA,NA,NA,NA,NA,NA,NA,NA,NA,NA,NA,NA,NA,NA,NA,NA,NA,NA,NA,NA,NA,NA,NA,NA,NA,NA,NA,NA,NA,NA,NA,NA,NA,NA,NA,NA,NA,NA,NA,NA,NA,NA,NA,NA,NA,NA,NA,NA,NA,NA,NA,NA,NA,NA,NA,NA,NA,NA,NA,NA,NA,NA,NA,NA,NA,NA,NA,NA,NA,NA,NA,NA,NA,NA,NA,NA,NA,NA,NA,NA,NA,NA,NA,5,5,5,5,5,4,4,5,4,4,4,4,3,3,3,5,2,2,1,2,2,2,3,2,2,2,3,2,2,2,2,2,NA,NA,NA,NA,NA,NA,NA,2,4,2,4,2,4,2,2,4,4,4,1,1,5,5,4,4,4,2,4,3,4,3,5,4,4,4,2,4,4,1,1,4,2,3,4,2,2,2,2,3,3,4,2,1,4,2,4,4,4,4,4,3,4,4,2,3
"SMU",NA,NA,NA,NA,NA,NA,NA,5,0,NA,NA,36.3,36.3,NA,NA,79,26,5,1,2,1,NA,4,4,5,NA,3,4,4,4,1,NA,2,8,3,1,3,1,1,NA,1,NA,NA,NA,NA,NA,NA,NA,NA,NA,NA,3,3,3,4,3,4,3,2,2,2,3,2,3,NA,NA,NA,NA,NA,NA,NA,NA,NA,NA,NA,NA,NA,NA,2,4,3,4,4,4,4,4,3,4,4,4,4,4,3,2,3,3,4,4,4,4,4,4,4,4,4,5,4,3,4,3,4,5,4,3,4,2,4,4,3,2,3,3,3,4,2,2,2,4,2,3,2,3,3,2,4,4,4,4,4,4,4,4,4,6,5,4,5,5,4,5,4,4,3,4,3,3,4,4,3,4,2,3,3,2,3,2,3,4,5,4,4,4,4,2,4,4,3,2,3,3,4,4,4,4,2,4,4,3,4,3,4,3,3,4,4,3,4,3,4,3,2,3,3,2,2,2,2,2,3,2,3,2,4,3,3,2,3,3,3,4,4,4,4,3,2,4,4,3,2,4
"Portugal",NA,NA,NA,NA,3,NA,NA,0,1,NA,NA,36.4,36.4,NA,NA,NA,NA,8,1,1,4,4,1,1,5,1,4,3,7,4,1,NA,1,NA,3,1,8,3,1,NA,2,NA,NA,NA,NA,NA,NA,NA,NA,NA,NA,3,3,3,2,3,4,1,3,2,3,4,3,2,3,3,4,3,3,2,2,4,3,4,3,4,3,4,4,4,4,4,3,3,3,4,4,4,4,4,4,3,3,3,3,4,1,3,3,3,3,6,3,7,3,3,5,3,5,1,1,2,1,3,6,3,2,2,4,5,3,3,6,2,1,1,4,6,2,6,7,7,1,3,4,5,3,5,4,5,5,5,3,4,5,5,5,4,4,4,5,2,2,1,2,2,5,2,5,2,5,3,2,3,5,3,NA,NA,NA,NA,NA,NA,NA,1,4,3,4,3,4,3,4,4,4,2,4,4,3,2,4,4,4,4,4,4,4,4,2,2,1,2,4,4,4,3,4,4,3,3,3,3,4,3,2,2,4,2,3,2,4,4,4,4,4,2,4,3,3,3,2,2
"UCSB",NA,2,7,2,3,2,1,7,0,2,NA,36.44444444,36.44444444,36.44444444,34.4329071,92,13.88888889,5,1,2,1,NA,4,2,5,NA,1,NA,1,3,2,1,2,4,1,NA,NA,1,1,NA,1,NA,NA,NA,NA,NA,NA,NA,NA,NA,NA,5,2,5,3,3,5,4,4,1,4,4,3,1,3,3,3,2,3,2,2,3,3,2,2,3,2,3,2,3,2,4,4,1,1,2,2,4,2,4,2,1,1,1,1,1,1,4,5,5,4,5,5,7,4,4,4,4,5,4,4,3,6,3,6,4,4,3,5,5,5,4,5,5,5,4,4,4,2,5,5,6,4,4,2,3,4,2,2,4,3,4,4,5,6,5,3,5,3,5,2,4,2,3,4,2,2,4,2,2,2,2,2,2,3,1,4,5,6,4,4,4,3,4,5,4,4,1,2,4,2,2,4,2,2,4,3,3,4,2,4,2,4,4,3,4,1,4,3,2,4,3,2,4,5,3,4,4,4,4,2,1,4,3,2,2,1,4,4,4,4,3,2,4,2,2,2,2,3,3
"UCSB",NA,2,7,1,4,2,1,1,1,2,NA,36.49444444,36.21111111,36.77777778,34.41940308,51,6.666666667,5,1,2,1,NA,4,4,4,1,7,1,5,5,1,NA,2,8,1,NA,NA,1,1,NA,1,NA,NA,NA,NA,NA,NA,NA,NA,NA,NA,3,3,3,2,2,4,1,2,3,2,3,3,5,4,5,4,3,3,3,3,4,3,3,4,3,2,4,5,5,5,5,5,5,5,5,5,5,5,5,5,5,1,4,4,5,5,5,5,4,6,4,4,7,4,4,2,6,4,4,4,5,4,5,5,6,3,3,3,4,4,3,4,3,2,3,3,3,2,2,5,4,4,4,5,4,4,4,4,3,3,4,5,7,7,7,7,7,7,7,5,5,5,2,5,5,5,4,3,4,5,2,5,1,3,1,5,5,4,2,3,3,4,1,5,4,4,1,1,5,5,5,5,5,1,5,5,5,3,5,5,3,5,5,3,5,5,5,3,3,3,3,3,4,4,3,1,4,4,3,4,1,3,5,3,4,4,4,4,4,4,4,1,1,5,1,1,1,1,3
"VCU",NA,NA,NA,NA,4,NA,NA,NA,0,NA,NA,36.5,36.5,NA,NA,68,8.888888889,5,1,2,1,NA,4,4,5,NA,5,4,5,5,1,NA,2,5,3,1,5,3,1,NA,1,NA,NA,NA,NA,NA,NA,NA,NA,NA,NA,4,4,5,5,3,4,5,4,4,3,5,2,4,3,3,4,3,2,3,3,3,4,2,4,2,3,4,3,3,1,3,1,1,1,1,1,2,2,2,2,2,1,1,1,1,1,1,1,1,1,1,1,4,1,1,4,4,3,3,2,1,3,3,1,3,2,6,1,4,4,1,3,4,7,7,5,5,5,4,7,6,4,5,5,5,5,5,5,5,5,5,5,3,4,4,3,3,4,3,2,2,1,2,3,1,2,4,4,1,3,3,2,3,4,4,2,5,4,2,1,1,2,3,4,4,3,1,3,4,4,3,5,5,3,3,3,3,4,3,3,3,3,4,4,4,3,3,3,3,4,3,3,3,3,3,3,4,4,2,3,2,3,3,3,3,2,3,4,4,2,3,2,4,5,3,3,4,3,1
"Poland",NA,NA,NA,NA,NA,NA,NA,NA,NA,NA,NA,36.5,36.5,NA,NA,68,-2,9,1,2,1,NA,4,4,4,1,8,2,4,4,2,1,2,8,6,8,2,2,2,1,1,NA,NA,NA,NA,NA,NA,NA,NA,NA,NA,NA,NA,NA,NA,NA,NA,NA,NA,NA,NA,NA,NA,NA,NA,NA,NA,NA,NA,NA,NA,NA,NA,NA,NA,NA,NA,NA,NA,NA,NA,NA,NA,NA,NA,NA,NA,NA,NA,NA,NA,NA,NA,NA,NA,NA,NA,NA,NA,NA,NA,NA,NA,NA,NA,NA,NA,NA,NA,NA,NA,NA,NA,NA,NA,NA,NA,NA,NA,NA,NA,NA,NA,NA,NA,NA,NA,NA,NA,NA,NA,NA,NA,NA,4,4,4,4,4,4,4,4,4,NA,NA,NA,NA,NA,NA,NA,NA,NA,NA,NA,NA,NA,NA,NA,NA,NA,NA,NA,NA,NA,NA,NA,5,5,7,5,4,5,5,2,3,2,5,4,4,2,3,5,3,4,2,3,3,4,2,4,4,3,4,4,4,3,4,2,4,4,3,4,4,3,3,2,2,4,4,4,2,3,4,4,4,4,3,2,4,4,4,4,4,3,3,3,3,3,3,3
"Zurich",NA,NA,NA,NA,NA,NA,NA,NA,NA,NA,NA,36.6,36.6,NA,NA,NA,NA,1,1,NA,NA,NA,NA,NA,NA,NA,NA,NA,NA,NA,NA,NA,NA,NA,NA,NA,NA,NA,NA,NA,NA,NA,NA,NA,NA,NA,NA,NA,NA,NA,NA,NA,NA,NA,NA,NA,NA,NA,NA,NA,NA,NA,NA,NA,NA,NA,NA,NA,NA,NA,NA,NA,NA,NA,NA,NA,NA,NA,NA,NA,NA,NA,NA,NA,NA,NA,NA,NA,NA,NA,NA,NA,NA,NA,NA,NA,NA,NA,NA,NA,NA,NA,NA,NA,NA,NA,NA,NA,NA,NA,NA,NA,NA,NA,NA,NA,NA,NA,NA,NA,NA,NA,NA,NA,NA,NA,NA,NA,NA,NA,NA,NA,NA,NA,NA,NA,NA,NA,NA,NA,NA,NA,NA,NA,NA,NA,NA,NA,NA,NA,NA,NA,NA,NA,NA,NA,NA,NA,NA,NA,NA,NA,NA,NA,NA,NA,NA,NA,NA,NA,NA,NA,NA,NA,NA,NA,NA,NA,NA,NA,NA,NA,NA,NA,NA,NA,NA,NA,NA,NA,NA,NA,NA,NA,NA,NA,NA,NA,NA,NA,NA,NA,NA,NA,NA,NA,NA,NA,NA,NA,NA,NA,NA,NA,NA,NA,NA,NA,NA,NA,NA,NA,NA,NA,NA,NA,NA,NA,NA,NA
"UCSB",NA,2,7,1,2,2,1,5,0,2,NA,36.61111111,36.11111111,37.11111111,34.4329071,86,12.22222222,5,1,1,2,2,4,2,4,1,4,3,4,2,1,NA,2,2,3,1,2,2,1,NA,1,NA,NA,NA,NA,NA,NA,NA,NA,NA,NA,3,2,2,3,2,3,1,2,2,3,4,3,2,3,3,4,3,3,3,2,3,3,3,4,4,3,4,4,4,1,4,2,2,3,2,4,3,4,3,4,2,2,2,2,2,4,2,6,5,6,5,6,4,4,5,4,6,4,4,4,3,3,5,4,4,4,2,5,3,4,3,3,3,2,2,2,3,2,3,3,4,2,5,3,4,4,4,4,4,4,4,4,7,4,4,3,5,5,5,4,4,3,3,4,4,4,3,3,4,4,1,3,2,3,2,5,6,5,3,5,5,5,2,3,4,4,3,2,4,5,5,5,4,3,3,4,2,4,4,4,3,3,4,4,3,4,4,4,2,3,4,3,2,4,3,1,1,2,3,4,3,2,2,4,3,4,3,4,4,4,4,4,3,4,3,3,2,3,4
"Chile",NA,NA,NA,NA,3,NA,NA,0,0,NA,NA,36.7,36.7,NA,33.444301605225,55,12,2,1,1,1,NA,4,2,4,2,3,2,3,2,1,NA,2,3,4,1,1,1,1,NA,1,NA,NA,NA,NA,NA,NA,NA,NA,NA,NA,3,3,3,4,5,4,2,2,2,2,4,5,3,2,3,3,3,3,2,3,2,3,2,3,4,3,2,1,1,1,1,1,1,2,1,1,1,1,1,1,1,1,1,1,1,1,1,2,2,1,3,2,2,6,5,6,1,5,1,3,2,5,2,5,2,2,1,2,1,2,1,2,2,1,4,2,2,1,2,3,4,1,2,5,5,5,5,4,3,3,3,2,3,4,2,3,1,2,2,2,2,1,3,2,2,2,3,2,2,3,2,4,3,4,2,5,6,4,1,1,1,1,2,5,5,2,1,2,2,3,4,5,5,3,5,3,2,5,3,2,2,2,4,5,3,5,3,5,3,3,4,2,1,2,2,3,4,3,2,5,4,3,4,3,3,2,3,4,4,4,3,4,4,3,2,3,3,2,3
"SMU",NA,NA,NA,NA,3,NA,NA,0,0,NA,NA,36.7,36.7,NA,NA,70,27,5,1,2,1,NA,4,4,5,NA,8,8,8,8,1,NA,2,8,1,NA,NA,2,1,NA,1,NA,NA,NA,NA,NA,NA,NA,NA,NA,NA,NA,NA,NA,NA,NA,NA,NA,NA,NA,NA,NA,NA,NA,3,3,3,3,3,3,3,3,3,3,3,3,3,3,3,3,3,3,4,4,3,3,3,2,3,4,3,3,3,3,2,3,3,3,4,5,4,4,3,4,4,4,4,3,5,3,4,4,4,3,3,4,4,4,4,4,4,3,5,4,4,4,3,4,3,4,4,5,3,4,3,3,3,3,3,3,3,3,3,4,3,3,3,3,3,3,3,2,3,3,3,3,3,3,3,3,3,3,3,3,3,3,4,6,6,5,5,5,5,3,3,2,3,3,3,3,3,3,3,3,3,3,3,3,3,3,3,3,3,3,3,3,3,3,3,3,3,3,3,3,3,3,3,3,3,3,3,3,3,3,3,3,3,3,3,3,3,3,3,3,3,3,3,3,3,3
"SMU",NA,NA,NA,NA,4,NA,NA,0,0,2,NA,36.75,36.7,36.8,NA,70,26,5,1,2,1,NA,4,4,5,NA,3,2,4,3,2,1,2,5,1,NA,NA,1,1,NA,1,NA,NA,NA,NA,NA,NA,NA,NA,NA,NA,3,2,3,3,2,2,1,3,2,3,4,2,3,4,3,4,2,3,3,3,3,2,3,4,4,3,3,5,5,4,5,3,3,5,4,4,5,5,5,5,3,3,4,3,5,4,5,1,2,1,2,6,5,1,2,2,1,2,2,1,2,1,7,3,1,5,3,6,3,3,4,3,2,2,2,2,3,3,2,4,4,3,3,4,5,4,5,5,5,5,5,5,4,6,6,6,6,5,5,4,4,1,4,4,3,4,4,1,4,3,1,3,2,4,4,4,7,7,2,3,2,4,1,2,3,3,2,3,2,3,2,4,3,1,4,5,3,4,4,4,2,3,4,5,4,3,3,4,4,4,4,3,1,1,2,1,2,3,4,3,3,4,3,4,5,3,2,4,3,3,4,4,3,5,3,4,3,2,3
"Serbia",NA,NA,NA,NA,5,NA,NA,0,0,NA,NA,36.8,36.8,NA,NA,79,11,6,1,2,1,NA,4,4,4,1,2,2,5,5,1,NA,2,8,1,NA,NA,1,1,NA,1,NA,NA,NA,NA,NA,NA,NA,NA,NA,NA,1,2,3,5,5,5,5,1,5,5,1,1,5,3,2,1,4,2,2,3,3,1,1,2,5,1,2,1,2,2,1,1,1,2,1,2,2,1,2,1,2,1,1,1,1,1,1,1,4,1,4,4,4,4,4,4,1,1,4,4,4,1,1,1,1,7,6,4,4,7,4,4,5,7,4,4,6,3,2,NA,3,NA,4,3,3,3,3,3,3,3,3,3,2,1,1,1,1,1,1,3,3,3,3,3,3,3,3,3,3,3,3,3,3,3,3,1,2,1,1,1,1,1,3,3,4,4,1,1,1,4,4,3,3,3,3,3,3,3,3,3,3,3,3,3,3,3,3,3,3,3,3,3,3,3,3,3,3,3,3,3,3,3,3,3,3,3,3,3,3,3,3,3,3,3,3,3,3,3,3
"Poland",NA,NA,NA,NA,4,2,1,8,0,2,NA,36.8,36.7,36.9,NA,67,2,9,1,1,1,NA,4,2,4,1,6,6,6,4,1,NA,2,6,6,8,8,1,1,NA,1,NA,NA,NA,NA,NA,NA,NA,NA,NA,NA,2,2,4,5,2,3,1,2,2,4,3,3,4,2,3,2,5,4,5,5,3,4,4,3,4,4,3,4,4,3,4,1,2,2,2,3,4,4,4,4,3,1,1,2,2,2,3,2,2,3,5,2,4,2,2,2,4,6,4,2,2,4,6,2,2,2,2,5,2,3,2,2,2,2,2,2,3,2,1,5,4,3,2,4,4,4,4,3,3,2,4,3,3,2,2,2,4,4,4,2,2,1,2,2,2,3,2,3,2,2,3,1,1,3,1,3,4,6,2,3,4,4,3,4,3,4,2,2,3,4,2,5,4,2,4,4,4,3,4,2,3,3,4,4,4,4,4,4,4,3,4,3,2,2,2,2,2,3,2,2,2,2,3,4,3,2,3,3,4,4,4,4,3,4,2,2,2,2,3
"Poland",NA,NA,NA,NA,NA,NA,NA,0,14,NA,NA,36.8,36.8,NA,NA,91,1,9,1,2,1,NA,4,2,5,1,6,5,5,5,1,NA,1,NA,2,1,1,3,1,NA,2,NA,NA,NA,NA,NA,NA,NA,NA,NA,NA,5,5,5,5,5,4,5,5,4,5,5,5,5,NA,NA,NA,NA,NA,NA,NA,NA,NA,NA,NA,NA,NA,NA,NA,NA,NA,NA,NA,NA,NA,NA,NA,NA,NA,NA,NA,NA,NA,NA,NA,NA,NA,NA,NA,NA,NA,NA,NA,NA,NA,NA,NA,NA,NA,NA,NA,NA,NA,NA,NA,NA,NA,NA,NA,NA,NA,NA,NA,NA,NA,NA,NA,NA,NA,NA,NA,NA,NA,NA,NA,NA,NA,NA,NA,NA,NA,NA,NA,NA,NA,NA,NA,NA,NA,NA,NA,NA,NA,NA,NA,NA,NA,NA,NA,NA,NA,NA,NA,NA,NA,NA,NA,NA,NA,NA,NA,NA,NA,NA,NA,NA,NA,NA,NA,NA,NA,NA,NA,NA,NA,NA,NA,NA,NA,NA,NA,NA,NA,NA,NA,NA,NA,NA,NA,NA,NA,NA,NA,NA,NA,NA,NA,NA,NA,NA,NA,NA,NA,NA,NA,NA,NA,NA,NA,NA,NA,NA,NA,NA,NA,NA,NA,NA,NA,NA
"Bamberg",NA,NA,NA,NA,4,NA,NA,1.5,0,NA,NA,36.8,36.8,NA,NA,71,2,1,1,2,1,NA,4,4,4,1,2,2,7,6,NA,NA,NA,NA,NA,NA,NA,NA,NA,NA,NA,NA,NA,NA,NA,NA,NA,NA,NA,NA,NA,3,2,4,4,2,4,4,2,2,4,4,4,4,3,3,3,2,2,2,2,3,2,2,3,3,2,3,4,4,2,4,3,2,3,4,4,4,4,4,4,3,1,4,1,2,1,4,NA,NA,NA,NA,NA,NA,NA,NA,NA,NA,NA,NA,NA,NA,NA,NA,NA,NA,NA,NA,NA,NA,NA,NA,NA,NA,NA,NA,NA,NA,NA,NA,NA,NA,NA,NA,3,4,4,5,5,3,2,5,5,5,5,5,5,5,5,5,NA,NA,NA,NA,NA,NA,NA,NA,NA,NA,NA,NA,NA,NA,NA,NA,5,7,5,4,3,3,6,1,2,2,5,4,4,2,1,4,3,2,1,1,3,3,1,4,2,3,4,2,2,5,5,5,5,2,2,2,2,1,2,1,3,2,2,1,2,2,1,2,4,1,3,2,4,4,5,3,4,2,2,3,3,4,3,4
"UCSB",NA,1,2,1,5,2,1,0,0,2,NA,36.80555556,36.5,37.11111111,34.4329071,76,10,5,1,2,1,NA,4,4,5,NA,8,4,8,8,1,NA,2,5,3,1,5,5,1,NA,1,NA,NA,NA,NA,NA,NA,NA,NA,NA,NA,4,1,5,1,3,5,2,2,5,1,4,4,3,2,1,3,1,2,2,2,2,2,2,1,4,1,2,2,4,3,4,2,2,2,3,2,4,2,4,3,2,1,2,2,3,1,3,5,7,7,7,7,6,5,6,7,2,7,6,7,6,2,1,4,1,7,1,2,2,2,2,2,1,1,1,2,2,2,2,2,3,1,2,5,4,4,4,5,4,3,1,1,3,2,1,1,2,2,3,4,2,1,3,1,1,3,4,2,2,1,1,1,1,2,1,4,5,2,2,4,3,1,5,4,5,4,2,1,2,5,1,5,2,4,5,5,1,5,1,2,5,5,3,5,5,5,5,5,3,3,4,3,1,2,1,2,3,5,3,4,2,5,3,5,2,4,5,3,2,4,5,3,2,4,3,2,2,5,1
"UCSB",NA,2,4,1,3,2,1,2,0,1,0,36.80555556,36.77777778,36.83333333,34.50210571,87,8.333333333,5,1,2,1,NA,4,4,2,1,8,2,8,8,1,NA,2,8,3,1,8,8,2,8,2,"Skii Team","0","0","0","0",5,0,0,0,0,2,2,2,4,2,2,2,2,2,2,4,2,3,3,3,4,3,4,4,2,4,2,4,2,4,4,3,2,4,2,4,3,2,2,5,4,4,4,4,4,3,2,2,2,4,2,4,7,5,5,5,5,4,6,7,3,4,2,3,4,2,5,2,6,4,6,3,6,3,5,5,3,3,6,3,3,6,3,7,2,6,2,3,4,4,4,4,4,4,4,4,4,6,4,4,3,5,6,5,3,4,2,4,3,2,4,4,4,2,4,2,2,2,2,2,5,7,6,5,4,5,7,2,3,3,5,5,4,5,3,3,3,2,2,3,4,4,2,4,4,4,3,4,3,4,4,4,4,3,4,2,4,2,3,2,2,4,2,3,1,2,3,3,4,2,2,3,3,4,2,3,4,2,4,2,4,4,2,4
"UCSB",NA,2,7,1,5,2,1,0,0,2,NA,36.94444444,37,36.88888889,34.0184021,71,7.777777778,5,1,2,1,NA,4,4,4,1,4,1,6,6,1,NA,2,8,3,1,4,1,2,8,2,"Mentorship","Kickboxing","Roommates","Best friends","Family",7,7,2,2,4,5,4,5,4,3,3,4,2,3,4,4,5,2,1,3,2,2,2,2,2,2,2,2,2,3,2,3,1,4,2,4,4,1,1,4,4,4,4,4,4,1,1,1,1,1,1,1,1,1,1,1,1,1,1,1,1,1,2,1,1,1,1,1,3,1,1,1,1,1,1,1,1,1,1,1,1,1,1,1,6,1,1,1,5,5,5,5,5,5,4,5,5,7,6,6,6,7,6,6,1,2,1,1,1,1,1,1,1,1,1,1,3,1,1,2,5,8,6,4,4,6,7,2,2,4,5,2,3,4,4,2,5,2,1,4,2,2,4,2,5,5,5,4,2,5,5,4,5,5,5,4,4,1,1,3,1,5,5,4,4,2,2,2,4,2,2,4,5,5,5,4,4,2,2,4,4,2,4,4
"Portugal",NA,NA,NA,NA,NA,NA,NA,NA,NA,NA,NA,37,37,NA,NA,74,7,8,1,1,2,2,4,4,NA,4,5,5,7,6,2,1,2,2,3,7,6,5,2,5,2,NA,NA,NA,NA,NA,NA,NA,NA,NA,NA,NA,NA,NA,NA,NA,NA,NA,NA,NA,NA,NA,NA,NA,NA,NA,NA,NA,NA,NA,NA,NA,NA,NA,NA,NA,NA,NA,NA,NA,NA,NA,NA,NA,NA,NA,NA,NA,NA,NA,NA,NA,NA,NA,NA,NA,NA,NA,NA,NA,NA,NA,NA,NA,NA,NA,NA,NA,NA,NA,NA,NA,NA,NA,NA,NA,NA,NA,NA,NA,NA,NA,NA,NA,NA,NA,NA,NA,NA,NA,NA,NA,NA,NA,NA,NA,NA,NA,NA,NA,NA,NA,NA,NA,3,3,3,3,3,3,NA,NA,NA,NA,NA,NA,NA,NA,NA,NA,NA,NA,NA,NA,NA,NA,4,4,5,5,5,5,5,NA,NA,NA,NA,NA,NA,NA,NA,NA,NA,NA,NA,NA,NA,NA,NA,NA,NA,NA,NA,NA,NA,NA,NA,NA,NA,NA,NA,NA,NA,NA,NA,NA,NA,NA,NA,NA,NA,NA,NA,NA,NA,NA,NA,NA,NA,NA,NA,NA,NA,NA,NA,NA,NA,NA,NA,NA
"Oslo",NA,NA,NA,NA,3,NA,NA,NA,NA,NA,NA,37,37,NA,NA,NA,NA,4,1,1,2,1,4,4,4,4,3,2,8,6,1,NA,1,NA,3,1,8,1,1,NA,1,NA,NA,NA,NA,NA,NA,NA,NA,NA,NA,2,2,3,2,2,3,2,4,2,3,4,2,3,3,2,3,2,2,2,2,2,2,2,4,4,2,3,4,4,4,4,4,2,5,4,4,4,4,4,4,4,3,3,4,4,4,4,4,3,3,3,2,3,3,3,3,3,5,3,3,3,3,3,3,3,5,3,3,4,3,5,5,3,3,5,3,4,3,4,3,3,3,3,5,5,5,5,5,5,5,5,5,7,5,4,4,4,4,4,3,3,2,3,4,2,3,2,4,3,2,2,3,3,4,4,5,7,6,2,1,4,4,2,2,3,4,4,3,4,3,3,4,3,2,2,2,2,3,2,3,3,3,5,2,3,4,4,4,4,4,4,4,2,2,4,2,3,4,3,2,3,4,3,3,4,4,2,3,4,2,3,2,3,2,3,3,2,3,1
"SMU",NA,NA,NA,NA,NA,NA,NA,NA,NA,NA,NA,37.1,37.1,NA,NA,70,26,5,1,2,1,NA,4,4,5,NA,1,NA,8,1,1,NA,2,8,1,NA,NA,1,1,NA,1,NA,NA,NA,NA,NA,NA,NA,NA,NA,NA,NA,NA,NA,NA,NA,NA,NA,NA,NA,NA,NA,NA,NA,NA,NA,NA,NA,NA,NA,NA,NA,NA,NA,NA,NA,NA,NA,2,5,1,5,2,2,1,1,2,1,1,1,1,1,1,1,1,1,1,1,2,2,2,2,2,1,2,2,3,2,2,2,2,1,2,4,1,1,2,3,2,3,2,2,5,2,2,2,2,2,2,2,3,3,2,4,NA,NA,NA,NA,NA,NA,NA,NA,NA,2,4,3,3,2,2,3,1,3,1,2,1,1,1,1,1,1,1,4,2,2,4,2,2,2,4,1,3,1,4,NA,NA,NA,NA,NA,NA,NA,NA,NA,NA,NA,NA,NA,NA,NA,NA,NA,NA,NA,NA,NA,NA,NA,NA,NA,NA,NA,NA,NA,NA,NA,NA,NA,NA,NA,NA,NA,NA,NA,NA,NA,NA,NA,NA,NA,NA,NA,NA,NA,NA,NA,NA,NA,NA,NA,NA,NA
"Portugal",NA,NA,NA,NA,NA,NA,NA,0,0,NA,NA,37.1,37.1,NA,NA,NA,NA,8,1,NA,NA,NA,NA,NA,NA,NA,NA,NA,NA,NA,NA,NA,NA,NA,NA,NA,NA,NA,NA,NA,NA,NA,NA,NA,NA,NA,NA,NA,NA,NA,NA,NA,NA,NA,NA,NA,NA,NA,NA,NA,NA,NA,NA,NA,NA,NA,NA,NA,NA,NA,NA,NA,NA,NA,NA,NA,NA,NA,NA,NA,NA,NA,NA,NA,NA,NA,NA,NA,NA,NA,NA,NA,NA,NA,NA,NA,NA,NA,NA,NA,NA,NA,NA,NA,NA,NA,NA,NA,NA,NA,NA,NA,NA,NA,NA,NA,NA,NA,NA,NA,NA,NA,NA,NA,NA,NA,NA,NA,NA,NA,NA,NA,NA,NA,NA,NA,NA,NA,NA,NA,NA,NA,NA,NA,NA,NA,NA,NA,NA,NA,NA,NA,NA,NA,NA,NA,NA,NA,NA,NA,NA,NA,NA,NA,NA,NA,NA,NA,NA,NA,NA,NA,NA,NA,NA,NA,NA,NA,NA,NA,NA,NA,NA,NA,NA,NA,NA,NA,NA,NA,NA,NA,NA,NA,NA,NA,NA,NA,NA,NA,NA,NA,NA,NA,NA,NA,NA,NA,NA,NA,NA,NA,NA,NA,NA,NA,NA,NA,NA,NA,NA,NA,NA,NA,NA,NA,NA,NA,NA,NA
"Poland",NA,NA,NA,NA,NA,NA,NA,NA,NA,NA,NA,37.6,37.6,NA,NA,81,5,9,1,NA,NA,NA,NA,NA,NA,NA,NA,NA,NA,NA,NA,NA,NA,NA,NA,NA,NA,NA,NA,NA,NA,NA,NA,NA,NA,NA,NA,NA,NA,NA,NA,NA,NA,NA,NA,NA,NA,NA,NA,NA,NA,NA,NA,NA,NA,NA,NA,NA,NA,NA,NA,NA,NA,NA,NA,NA,NA,NA,NA,NA,NA,NA,NA,NA,NA,NA,NA,NA,NA,NA,NA,NA,NA,NA,NA,NA,NA,NA,NA,NA,NA,NA,NA,NA,NA,NA,NA,NA,NA,NA,NA,NA,NA,NA,NA,NA,NA,NA,NA,NA,NA,NA,NA,NA,NA,NA,NA,NA,NA,NA,NA,NA,NA,NA,NA,NA,NA,NA,NA,NA,NA,NA,NA,NA,NA,NA,NA,NA,NA,NA,NA,NA,NA,NA,NA,NA,NA,NA,NA,NA,NA,NA,NA,NA,NA,NA,NA,NA,NA,NA,NA,NA,NA,NA,NA,NA,NA,NA,NA,NA,NA,NA,NA,NA,NA,NA,NA,NA,NA,NA,NA,NA,NA,NA,NA,NA,NA,NA,NA,NA,NA,NA,NA,NA,NA,NA,NA,NA,NA,NA,NA,NA,NA,NA,NA,NA,NA,NA,NA,NA,NA,NA,NA,NA,NA,NA,NA,NA,NA,NA
